Geometry = GenFormat {
61  S
H    Si
1      1     11.582409075835647      8.906309322142173      2.861931711395688
2      1      7.718508045882461      8.917930368849040      2.861259247486378
3      1     15.446310105788838      8.917930368849031      2.861259247486380
4      1      9.660522672401900      5.577504422577177      2.861931704475178
5      1      5.791204537917817      5.561949772975050      2.861407557836226
6      1     13.504295479269409      5.577504422577179      2.861931704475180
7      1      7.712392852791186      2.234353940465613      2.861407546699756
8      1      3.870016223044479      2.234353940465590      2.861407546699758
9      1     11.582409075835635      2.225457518195746      2.861259248360396
10     2     11.582409075835647      8.916142663730767      4.364249352331518
11     2      7.721606050557098      8.916142663730767      4.364249352331518
12     2     15.443212101114197      8.916142663730765      4.364249352331518
13     2      9.652007563196372      5.572589164831729      4.364249352331518
14     2      5.791204537917823      5.572589164831729      4.364249352331518
15     2     13.512810588474922      5.572589164831728      4.364249352331518
16     2      7.721606050557098      2.229035665932691      4.364249352331518
17     2      3.860803025278549      2.229035665932691      4.364249352331518
18     2     11.582409075835647      2.229035665932690      4.364249352331518
19     2      9.652007563196372      7.801624830764421      5.152332469775356
20     2      5.791204537917823      7.801624830764420      5.152332469775356
21     2     13.512810588474922      7.801624830764420      5.152332469775356
22     2      7.721606050557098      4.458071331865383      5.152332469775356
23     2      3.860803025278549      4.458071331865383      5.152332469775356
24     2     11.582409075835647      4.458071331865382      5.152332469775356
25     2      5.791204537917824      1.114517832966344      5.152332469775356
26     2      1.930401512639275      1.114517832966344      5.152332469775356
27     2      9.652007563196374      1.114517832966343      5.152332469775356
28     2      9.528908618334345      7.743116700294749      7.438488131550665
29     2      5.732070134562096      7.664417851281464      7.547523213647940
30     2     13.458636204652272      7.838288064919463      7.524964493382731
31     2      7.713247133115154      4.459491323646995      7.479234923626823
32     2      3.700930012722427      4.447866599417421      7.557493078704154
33     2     11.530884399333518      4.357106283993547      7.535011099111128
34     2      5.814054366412257      1.138705127494379      7.521335558852789
35     2      1.912645139595032      1.046437808191534      7.564810485627696
36     2      9.784734994582239      1.039685894566292      7.568962822836560
37     2     11.498243520834535      6.664975900660870      8.129216215078698
38     2      7.708547468602065      6.647151432547478      8.570615659202041
39     2      3.728558670679512      6.702562784316639      8.472022321201729
40     2      9.549366388682644      3.272296069895133      8.406490857254042
41     2      5.726097836417694      3.441279389104246      8.273788462081917
42     2      1.841279724250720      3.262023864825238      8.491124453218575
43     2      7.759456090536808      0.070713058065357      8.322697284844770
44     2      3.893434691790095     -0.078933711779389      8.241479280311191
45     2      0.124613475132183     -0.212453623469976      8.534554199971433
46     2     11.307145621152346     10.627252067384752     11.682900267186906
47     2      9.747847050313831      9.111308624880339     10.501384144239095
48     2      3.410635077359221      7.178642543097067     10.961223424583304
49     2     11.043389981388467      6.961571280081009     10.434105109755190
50     2      6.542994957545498      4.481301457932939     10.351202496674400
51     2      1.346211973250737      6.018018331569186     11.694696814379748
52     2      8.691142321272071      3.294541072745970     10.720615628889679
53     2      7.630729977579827      0.884429350466518     10.586063523370939
54     2     11.033722898384315      7.767075807828726     12.986711812252006
55     2     14.332406888235214      9.300944522788201     12.074720769286815
56     2      7.312723643400027      8.244783384395287     10.538702082521231
57     2      9.003545256487179      5.871068000508805     10.738379239076632
58     2      5.722306885025762      6.491048614229770     11.727617084043182
59     2     12.400396660665345      5.982353803128096     13.937653506588125
60     2      8.580813084887637      7.122002039298849     12.746231591963614
61     2     12.413251959869950      9.606983128221730     13.570284577803124
0.000000000000000      0.000000000000000      0.000000000000000
11.582409075835649      0.000000000000000      0.000000000000000
5.791204537917825     10.030660496697113      0.000000000000000
0.000000000000000      0.000000000000000     37.821246761657591
}
Driver = ConjugateGradient {
  MaxForceComponent = 1E-4
  MaxSteps = 0
  LatticeOpt = No
  MovedAtoms = "1:-1"
  OutputPrefix = "geo_end"
  AppendGeometries = No
  ConvergentForcesOnly = Yes
  Constraints = {}
}
Hamiltonian = DFTB {
  EwaldParameter = 0.5
  Filling = Fermi {
    Temperature = 0.01
    IndependentKFilling = No
  }
  KPointsAndWeights = {
-0.33333333 -0.33333333  0.         1.0
-0.33333333  0.          0.         1.0
-0.33333333  0.33333333  0.         1.0
0.         -0.33333333  0.         1.0
0. 0. 0. 1.0
0.         0.33333333 0.         1.0
0.33333333 -0.33333333  0.         1.0
0.33333333 0.         0.         1.0
0.33333333 0.33333333 0.         1.0
  }
  MaxAngularMomentum = {
    H = s
    Si = p
  }
  SCC = YES
  SlaterKosterFiles = Type2FileNames {
    Prefix = /user/panosetti/data/progs/DFTB/parameters/pbc/pbc-0-3/
    Separator = "-"
    Suffix = ".skf"
    LowerCaseTypeName = No
  }
  PolynomialRepulsive = {}
  OldRepulsiveSum = No
  OrbitalResolvedSCC = No
  OldSKInterpolation = No
  Charge = 0.000000000000000E+000
  ReadInitialCharges = No
  InitialCharges = {}
  SCCTolerance = 1.000000000000000E-005
  MaxSCCIterations = 100
  Mixer = Broyden {
    MixingParameter = 0.200000000000000
    CachedIterations = -1
    InverseJacobiWeight = 1.000000000000000E-002
    MinimalWeight = 1.00000000000000
    MaximalWeight = 100000.000000000
    WeightFactor = 1.000000000000000E-002
  }
  ElectricField = {}
  DampXH = No
  SpinPolarisation = {}
  Eigensolver = DivideAndConquer {}
  Dispersion = {}
  ManyBodyDispersion = {}
  ThirdOrder = No
  ThirdOrderFull = No
}
Options = {
  WriteResultsTag = Yes
  WriteEigenvectors = No
  WriteAutotestTag = No
  WriteDetailedXML = No
  WriteDetailedOut = Yes
  WriteBandOut = Yes
  AtomResolvedEnergies = No
  RandomSeed = 0
  WriteHS = No
  WriteRealHS = No
  WriteCPA = No
  MinimiseMemoryUsage = No
  ShowFoldedCoords = No
}
ParserOptions = {
  IgnoreUnprocessedNodes = Yes
  ParserVersion = 4
  WriteHSDInput = Yes
  WriteXMLInput = No
  StopAfterParsing = No
}
Analysis = {
  ProjectStates = {}
}
Parallel = {
  RowBlockSize = 32
  ColumnBlockSize = 32
  Groups = 1
}
