Geometry = GenFormat {
61  S
H    Si
1      1     11.582409075835647      8.906309322142173      2.861931711395688
2      1      7.718508045882461      8.917930368849040      2.861259247486378
3      1     15.446310105788838      8.917930368849031      2.861259247486380
4      1      9.660522672401900      5.577504422577177      2.861931704475178
5      1      5.791204537917817      5.561949772975050      2.861407557836226
6      1     13.504295479269409      5.577504422577179      2.861931704475180
7      1      7.712392852791186      2.234353940465613      2.861407546699756
8      1      3.870016223044479      2.234353940465590      2.861407546699758
9      1     11.582409075835635      2.225457518195746      2.861259248360396
10     2     11.582409075835647      8.916142663730767      4.364249352331518
11     2      7.721606050557098      8.916142663730767      4.364249352331518
12     2     15.443212101114197      8.916142663730765      4.364249352331518
13     2      9.652007563196372      5.572589164831729      4.364249352331518
14     2      5.791204537917823      5.572589164831729      4.364249352331518
15     2     13.512810588474922      5.572589164831728      4.364249352331518
16     2      7.721606050557098      2.229035665932691      4.364249352331518
17     2      3.860803025278549      2.229035665932691      4.364249352331518
18     2     11.582409075835647      2.229035665932690      4.364249352331518
19     2      9.652007563196372      7.801624830764421      5.152332469775356
20     2      5.791204537917823      7.801624830764420      5.152332469775356
21     2     13.512810588474922      7.801624830764420      5.152332469775356
22     2      7.721606050557098      4.458071331865383      5.152332469775356
23     2      3.860803025278549      4.458071331865383      5.152332469775356
24     2     11.582409075835647      4.458071331865382      5.152332469775356
25     2      5.791204537917824      1.114517832966344      5.152332469775356
26     2      1.930401512639275      1.114517832966344      5.152332469775356
27     2      9.652007563196374      1.114517832966343      5.152332469775356
28     2      9.674702972396867      7.885365862469295      7.567254209790166
29     2      5.974407816992915      7.917578252520220      7.511074459144746
30     2     13.648659232393294      7.829805521486848      7.446773825708488
31     2      7.918505692602583      4.564565625342196      7.480234665632569
32     2      3.987740021054680      4.517039116941448      7.419427397877645
33     2     11.557745138876330      4.420823746642697      7.561973102652324
34     2      5.977429553790127      1.103836783345288      7.539334419391339
35     2      2.006558848610598      1.124106578592452      7.577736697614551
36     2      9.769436270244320      1.132557973214102      7.577996631025340
37     2     11.688483117259747      6.748656144561976      8.186060211864138
38     2      7.787440084225475      6.726977169440437      8.527960796986827
39     2      4.039194107129080      6.762835799824647      8.173152329398825
40     2      9.611914187799165      3.296243209008056      8.579821182450779
41     2      5.965360480627672      3.431030432325989      8.090276385344465
42     2      2.056409553128269      3.419650581971771      8.183240337070572
43     2      7.917620497727780     -0.056985350499617      8.471261778392417
44     2      4.024044223946937      0.121781450149552      8.399334273699496
45     2      0.094560239946010      0.049849433072870      8.540543211959115
46     2     12.024109711217154      7.805412858523016     10.430153755831645
47     2      8.483858382942094      6.971375698564882     12.427149329882845
48     2      3.968358940578292      6.686602917970911     10.559381222097489
49     2      9.164621445705695      4.774742071537040     12.203345390785907
50     2      6.193765189829753      3.948577515362789     10.377389313275613
51     2      2.808240839137067      4.481129772336274     10.264088231707017
52     2      7.180312988584364      0.851149572587702     11.488892268208598
53     2      4.788300302335559      0.657659949762565     10.708118606404526
54     2      9.922295094686094      8.427373508869422     11.182467654370539
55     2     14.102235462962767      8.912172746213725     10.681871989591700
56     2      6.296193474664805      6.122613983627681     11.453109108771962
57     2      8.295449130104755      2.910588740531093     10.838695905931370
58     2      4.268096538695832      2.927941407660536     11.424357788529319
59     2     12.110473028241007      5.352286616254164     10.430410853642417
60     2      6.725353820202404      4.145100725225804     12.955938924917250
61     2     11.387382237593025      6.457100400718768     12.450681974987326
0.000000000000000      0.000000000000000      0.000000000000000
11.582409075835649      0.000000000000000      0.000000000000000
5.791204537917825     10.030660496697113      0.000000000000000
0.000000000000000      0.000000000000000     37.821246761657591
}
Driver = ConjugateGradient {
  MaxForceComponent = 1E-4
  MaxSteps = 0
  LatticeOpt = No
  MovedAtoms = "1:-1"
  OutputPrefix = "geo_end"
  AppendGeometries = No
  ConvergentForcesOnly = Yes
  Constraints = {}
}
Hamiltonian = DFTB {
  EwaldParameter = 0.5
  Filling = Fermi {
    Temperature = 0.01
    IndependentKFilling = No
  }
  KPointsAndWeights = {
-0.33333333 -0.33333333  0.         1.0
-0.33333333  0.          0.         1.0
-0.33333333  0.33333333  0.         1.0
0.         -0.33333333  0.         1.0
0. 0. 0. 1.0
0.         0.33333333 0.         1.0
0.33333333 -0.33333333  0.         1.0
0.33333333 0.         0.         1.0
0.33333333 0.33333333 0.         1.0
  }
  MaxAngularMomentum = {
    H = s
    Si = p
  }
  SCC = YES
  SlaterKosterFiles = Type2FileNames {
    Prefix = /user/panosetti/data/progs/DFTB/parameters/pbc/pbc-0-3/
    Separator = "-"
    Suffix = ".skf"
    LowerCaseTypeName = No
  }
  PolynomialRepulsive = {}
  OldRepulsiveSum = No
  OrbitalResolvedSCC = No
  OldSKInterpolation = No
  Charge = 0.000000000000000E+000
  ReadInitialCharges = No
  InitialCharges = {}
  SCCTolerance = 1.000000000000000E-005
  MaxSCCIterations = 100
  Mixer = Broyden {
    MixingParameter = 0.200000000000000
    CachedIterations = -1
    InverseJacobiWeight = 1.000000000000000E-002
    MinimalWeight = 1.00000000000000
    MaximalWeight = 100000.000000000
    WeightFactor = 1.000000000000000E-002
  }
  ElectricField = {}
  DampXH = No
  SpinPolarisation = {}
  Eigensolver = DivideAndConquer {}
  Dispersion = {}
  ManyBodyDispersion = {}
  ThirdOrder = No
  ThirdOrderFull = No
}
Options = {
  WriteResultsTag = Yes
  WriteEigenvectors = No
  WriteAutotestTag = No
  WriteDetailedXML = No
  WriteDetailedOut = Yes
  WriteBandOut = Yes
  AtomResolvedEnergies = No
  RandomSeed = 0
  WriteHS = No
  WriteRealHS = No
  WriteCPA = No
  MinimiseMemoryUsage = No
  ShowFoldedCoords = No
}
ParserOptions = {
  IgnoreUnprocessedNodes = Yes
  ParserVersion = 4
  WriteHSDInput = Yes
  WriteXMLInput = No
  StopAfterParsing = No
}
Analysis = {
  ProjectStates = {}
}
Parallel = {
  RowBlockSize = 32
  ColumnBlockSize = 32
  Groups = 1
}
