Geometry = GenFormat {
61  S
H    Si
1      1     11.582409075835647      8.906309322142173      2.861931711395688
2      1      7.718508045882461      8.917930368849040      2.861259247486378
3      1     15.446310105788838      8.917930368849031      2.861259247486380
4      1      9.660522672401900      5.577504422577177      2.861931704475178
5      1      5.791204537917817      5.561949772975050      2.861407557836226
6      1     13.504295479269409      5.577504422577179      2.861931704475180
7      1      7.712392852791186      2.234353940465613      2.861407546699756
8      1      3.870016223044479      2.234353940465590      2.861407546699758
9      1     11.582409075835635      2.225457518195746      2.861259248360396
10     2     11.582409075835647      8.916142663730767      4.364249352331518
11     2      7.721606050557098      8.916142663730767      4.364249352331518
12     2     15.443212101114197      8.916142663730765      4.364249352331518
13     2      9.652007563196372      5.572589164831729      4.364249352331518
14     2      5.791204537917823      5.572589164831729      4.364249352331518
15     2     13.512810588474922      5.572589164831728      4.364249352331518
16     2      7.721606050557098      2.229035665932691      4.364249352331518
17     2      3.860803025278549      2.229035665932691      4.364249352331518
18     2     11.582409075835647      2.229035665932690      4.364249352331518
19     2      9.652007563196372      7.801624830764421      5.152332469775356
20     2      5.791204537917823      7.801624830764420      5.152332469775356
21     2     13.512810588474922      7.801624830764420      5.152332469775356
22     2      7.721606050557098      4.458071331865383      5.152332469775356
23     2      3.860803025278549      4.458071331865383      5.152332469775356
24     2     11.582409075835647      4.458071331865382      5.152332469775356
25     2      5.791204537917824      1.114517832966344      5.152332469775356
26     2      1.930401512639275      1.114517832966344      5.152332469775356
27     2      9.652007563196374      1.114517832966343      5.152332469775356
28     2      9.645344311631145      7.811286415041310      7.557557706308896
29     2      5.821253820996979      7.849624529199066      7.588896251879329
30     2     13.528177652039467      7.838861556843127      7.554218610160363
31     2      7.917299051535099      4.423769862877554      7.509357039381443
32     2      3.959882317764431      4.474084475169311      7.465714996240752
33     2     11.656426756327233      4.479647559828484      7.514154548211622
34     2      5.849393799965736      1.091561777282043      7.457510748794574
35     2      1.928989527064584      1.117984935589871      7.569761488368214
36     2      9.770694563045563      1.154005614349469      7.576237273776152
37     2     11.597890464382896      6.710372377856912      8.312353283470568
38     2      7.750610561360229      6.614188844095517      8.377888430238128
39     2      3.880900214110957      6.675481975818576      8.293017148818707
40     2      9.853392884649216      3.371082653497464      8.567232722085903
41     2      5.928454094960343      3.335018035934275      8.133014518995502
42     2      2.051978612198362      3.384246924054342      8.280483626442447
43     2      7.792078786644572      0.079587579803045      8.393241133561654
44     2      3.935822215174928      0.047555929024750      8.348790799645670
45     2      0.042206164393522      0.017138173937249      8.567859697962325
46     2     11.905275936482363      6.733076816506190     10.643843408177096
47     2      8.334141181704608      6.309617378827302     10.710747739664752
48     2      3.676002321143277      6.101007083155497     10.621284696260634
49     2      9.410223446288887      4.491384723882613     11.981239160358969
50     2      6.272014000508818      3.147188139688272     10.392671032477510
51     2      2.442369336341571      3.861421499158193     10.633996665138419
52     2      7.222963908775425      0.435847275173542     10.768637187714724
53     2      4.756922430717822      0.145670448203309     10.672693230426214
54     2      9.923214440508703      7.962046186102371     11.558273409814063
55     2     13.885352213964673      8.148750631872877     10.800363509443759
56     2      6.000571902550528      5.518722853037280     10.969548376252073
57     2      7.884468022355804      2.516646266390445     12.054012462022426
58     2      4.189755680424315      2.379660120126994     11.613755656609616
59     2     11.527236179054121      4.272080719628351     10.793991766720696
60     2      5.824929505754274      3.785380472379338     12.779914763420289
61     2     10.718095493545407      6.281119936737309     12.990881702065021
0.000000000000000      0.000000000000000      0.000000000000000
11.582409075835649      0.000000000000000      0.000000000000000
5.791204537917825     10.030660496697113      0.000000000000000
0.000000000000000      0.000000000000000     37.821246761657591
}
Driver = ConjugateGradient {
  MaxForceComponent = 1E-4
  MaxSteps = 0
  LatticeOpt = No
  MovedAtoms = "1:-1"
  OutputPrefix = "geo_end"
  AppendGeometries = No
  ConvergentForcesOnly = Yes
  Constraints = {}
}
Hamiltonian = DFTB {
  EwaldParameter = 0.5
  Filling = Fermi {
    Temperature = 0.01
    IndependentKFilling = No
  }
  KPointsAndWeights = {
-0.33333333 -0.33333333  0.         1.0
-0.33333333  0.          0.         1.0
-0.33333333  0.33333333  0.         1.0
0.         -0.33333333  0.         1.0
0. 0. 0. 1.0
0.         0.33333333 0.         1.0
0.33333333 -0.33333333  0.         1.0
0.33333333 0.         0.         1.0
0.33333333 0.33333333 0.         1.0
  }
  MaxAngularMomentum = {
    H = s
    Si = p
  }
  SCC = YES
  SlaterKosterFiles = Type2FileNames {
    Prefix = /user/panosetti/data/progs/DFTB/parameters/pbc/pbc-0-3/
    Separator = "-"
    Suffix = ".skf"
    LowerCaseTypeName = No
  }
  PolynomialRepulsive = {}
  OldRepulsiveSum = No
  OrbitalResolvedSCC = No
  OldSKInterpolation = No
  Charge = 0.000000000000000E+000
  ReadInitialCharges = No
  InitialCharges = {}
  SCCTolerance = 1.000000000000000E-005
  MaxSCCIterations = 100
  Mixer = Broyden {
    MixingParameter = 0.200000000000000
    CachedIterations = -1
    InverseJacobiWeight = 1.000000000000000E-002
    MinimalWeight = 1.00000000000000
    MaximalWeight = 100000.000000000
    WeightFactor = 1.000000000000000E-002
  }
  ElectricField = {}
  DampXH = No
  SpinPolarisation = {}
  Eigensolver = DivideAndConquer {}
  Dispersion = {}
  ManyBodyDispersion = {}
  ThirdOrder = No
  ThirdOrderFull = No
}
Options = {
  WriteResultsTag = Yes
  WriteEigenvectors = No
  WriteAutotestTag = No
  WriteDetailedXML = No
  WriteDetailedOut = Yes
  WriteBandOut = Yes
  AtomResolvedEnergies = No
  RandomSeed = 0
  WriteHS = No
  WriteRealHS = No
  WriteCPA = No
  MinimiseMemoryUsage = No
  ShowFoldedCoords = No
}
ParserOptions = {
  IgnoreUnprocessedNodes = Yes
  ParserVersion = 4
  WriteHSDInput = Yes
  WriteXMLInput = No
  StopAfterParsing = No
}
Analysis = {
  ProjectStates = {}
}
Parallel = {
  RowBlockSize = 32
  ColumnBlockSize = 32
  Groups = 1
}
