Geometry = GenFormat {
347  S
H    Si
1      1     34.742480647452659     22.283717680507937      2.862055495342433
2      1     30.884559081415070     22.298580482106868      2.861768544500543
3      1     27.025621226724070     22.283705373574318      2.862238844344454
4      1     23.166683335282386     22.298580494366131      2.861768021294525
5      1     19.308761668066499     22.283717673706459      2.862054765885734
6      1     15.444761109920663     22.289462413712265      2.860995259512709
7      1     38.606481118694539     22.289462438110817      2.860995554893768
8      1     32.818440950282302     18.947736752301516      2.862194598113543
9      1     28.953319690427119     18.947966102243033      2.862295697568122
10     1     25.097922797131744     18.947966158983938      2.862295393531181
11     1     21.232801393899148     18.947736740579572      2.862193867709908
12     1     17.381740154241704     18.946013142903929      2.862054996786139
13     1     13.512810523786516     18.930623570199398      2.861387903137365
14     1     36.669502113661878     18.946013157698921      2.862055598147020
15     1     30.886079473201629     15.600327358122387      2.862295308930257
16     1     27.025621176369921     15.603250209710083      2.861571300844487
17     1     23.165162901968337     15.600327253973424      2.862294904446061
18     1     19.297825867005148     15.597522256000817      2.861767549201607
19     1     15.445842493397802     15.592988785723866      2.862515797524492
20     1     11.579778658553995     15.592988834538399      2.862516020227599
21     1     34.753416491058481     15.597522313438938      2.861768014751440
22     1     28.958384497168861     12.261456234603413      2.862295059193709
23     1     25.092857893184078     12.261456217607595      2.862294958742583
24     1     21.240176214448990     12.263021710940194      2.862237837158709
25     1     17.370053866644071     12.263686000195543      2.862590964120017
26     1     13.512810591893992     12.257485002088250      2.861427656756732
27     1      9.655567298318422     12.263686022464002      2.862591129042640
28     1     32.811066127817504     12.263021775094579      2.862238049889088
29     1     27.025621161839563      8.914277433486182      2.862193783327633
30     1     23.156758245110961      8.913646179021020      2.861767704393054
31     1     19.305687866694953      8.911062656439018      2.862590867524674
32     1     15.444952901825713      8.917147846574011      2.862447034076609
33     1     11.580668291969527      8.917147881990919      2.862447004402027
34     1      7.719933319354786      8.911062693790315      2.862590797282097
35     1     30.894484103141636      8.913646194825544      2.861767646728470
36     1     25.098595165925538      5.580015234269687      2.862054842863824
37     1     21.226843109688627      5.579993540413221      2.862515891787980
38     1     17.371702631236953      5.573690308937519      2.861427481658813
39     1     13.512810627563592      5.570575947052246      2.862447188795831
40     1      9.653918615246688      5.573690345173764      2.861427248056187
41     1      5.798778053486687      5.579993655008880      2.862515548935405
42     1     28.952647107134496      5.580015271686801      2.862054714756940
43     1     23.150802903220434      2.237123570075515      2.861388017757722
44     1     19.293815482957509      2.231892752175702      2.862516271569194
45     1     15.448449695380219      2.230124591466069      2.862591623387953
46     1     11.577171531644440      2.230124602214251      2.862591388231176
47     1      7.731805816171925      2.231892729026165      2.862515706020365
48     1      3.874818168227071      2.237123583790854      2.861387566212462
49     1     27.025621093135118      2.230821071930154      2.860995383569740
50     2     34.747227227506947     22.290356659326921      4.364249352331518
51     2     30.886424202228397     22.290356659326921      4.364249352331518
52     2     27.025621176949848     22.290356659326921      4.364249352331518
53     2     23.164818151671298     22.290356659326921      4.364249352331518
54     2     19.304015126392748     22.290356659326918      4.364249352331518
55     2     15.443212101114199     22.290356659326918      4.364249352331518
56     2     38.608030252785497     22.290356659326918      4.364249352331518
57     2     32.816825714867676     18.946803160427883      4.364249352331518
58     2     28.956022689589123     18.946803160427883      4.364249352331518
59     2     25.095219664310573     18.946803160427883      4.364249352331518
60     2     21.234416639032023     18.946803160427883      4.364249352331518
61     2     17.373613613753474     18.946803160427880      4.364249352331518
62     2     13.512810588474924     18.946803160427880      4.364249352331518
63     2     36.677628740146218     18.946803160427880      4.364249352331518
64     2     30.886424202228397     15.603249661528846      4.364249352331518
65     2     27.025621176949848     15.603249661528846      4.364249352331518
66     2     23.164818151671298     15.603249661528844      4.364249352331518
67     2     19.304015126392748     15.603249661528844      4.364249352331518
68     2     15.443212101114199     15.603249661528842      4.364249352331518
69     2     11.582409075835649     15.603249661528842      4.364249352331518
70     2     34.747227227506947     15.603249661528842      4.364249352331518
71     2     28.956022689589123     12.259696162629808      4.364249352331518
72     2     25.095219664310576     12.259696162629806      4.364249352331518
73     2     21.234416639032027     12.259696162629806      4.364249352331518
74     2     17.373613613753474     12.259696162629806      4.364249352331518
75     2     13.512810588474924     12.259696162629806      4.364249352331518
76     2      9.652007563196374     12.259696162629805      4.364249352331518
77     2     32.816825714867676     12.259696162629805      4.364249352331518
78     2     27.025621176949848      8.916142663730769      4.364249352331518
79     2     23.164818151671298      8.916142663730769      4.364249352331518
80     2     19.304015126392748      8.916142663730769      4.364249352331518
81     2     15.443212101114199      8.916142663730769      4.364249352331518
82     2     11.582409075835649      8.916142663730767      4.364249352331518
83     2      7.721606050557099      8.916142663730767      4.364249352331518
84     2     30.886424202228397      8.916142663730767      4.364249352331518
85     2     25.095219664310576      5.572589164831733      4.364249352331518
86     2     21.234416639032027      5.572589164831733      4.364249352331518
87     2     17.373613613753477      5.572589164831729      4.364249352331518
88     2     13.512810588474927      5.572589164831729      4.364249352331518
89     2      9.652007563196378      5.572589164831729      4.364249352331518
90     2      5.791204537917828      5.572589164831729      4.364249352331518
91     2     28.956022689589119      5.572589164831729      4.364249352331518
92     2     23.164818151671298      2.229035665932695      4.364249352331518
93     2     19.304015126392748      2.229035665932692      4.364249352331518
94     2     15.443212101114202      2.229035665932692      4.364249352331518
95     2     11.582409075835653      2.229035665932692      4.364249352331518
96     2      7.721606050557103      2.229035665932692      4.364249352331518
97     2      3.860803025278553      2.229035665932692      4.364249352331518
98     2     27.025621176949848      2.229035665932692      4.364249352331518
99     2     32.816825714867676     21.175838826360575      5.152332469775356
100    2     28.956022689589123     21.175838826360575      5.152332469775356
101    2     25.095219664310573     21.175838826360575      5.152332469775356
102    2     21.234416639032023     21.175838826360575      5.152332469775356
103    2     17.373613613753474     21.175838826360572      5.152332469775356
104    2     13.512810588474924     21.175838826360572      5.152332469775356
105    2     36.677628740146218     21.175838826360572      5.152332469775356
106    2     30.886424202228397     17.832285327461538      5.152332469775356
107    2     27.025621176949848     17.832285327461538      5.152332469775356
108    2     23.164818151671298     17.832285327461534      5.152332469775356
109    2     19.304015126392748     17.832285327461534      5.152332469775356
110    2     15.443212101114199     17.832285327461534      5.152332469775356
111    2     11.582409075835649     17.832285327461534      5.152332469775356
112    2     34.747227227506947     17.832285327461534      5.152332469775356
113    2     28.956022689589123     14.488731828562498      5.152332469775356
114    2     25.095219664310576     14.488731828562498      5.152332469775356
115    2     21.234416639032027     14.488731828562496      5.152332469775356
116    2     17.373613613753474     14.488731828562496      5.152332469775356
117    2     13.512810588474924     14.488731828562496      5.152332469775356
118    2      9.652007563196374     14.488731828562496      5.152332469775356
119    2     32.816825714867676     14.488731828562496      5.152332469775356
120    2     27.025621176949848     11.145178329663461      5.152332469775356
121    2     23.164818151671298     11.145178329663461      5.152332469775356
122    2     19.304015126392748     11.145178329663461      5.152332469775356
123    2     15.443212101114199     11.145178329663461      5.152332469775356
124    2     11.582409075835649     11.145178329663459      5.152332469775356
125    2      7.721606050557099     11.145178329663459      5.152332469775356
126    2     30.886424202228397     11.145178329663459      5.152332469775356
127    2     25.095219664310576      7.801624830764425      5.152332469775356
128    2     21.234416639032027      7.801624830764425      5.152332469775356
129    2     17.373613613753474      7.801624830764425      5.152332469775356
130    2     13.512810588474924      7.801624830764425      5.152332469775356
131    2      9.652007563196378      7.801624830764423      5.152332469775356
132    2      5.791204537917828      7.801624830764423      5.152332469775356
133    2     28.956022689589126      7.801624830764423      5.152332469775356
134    2     23.164818151671298      4.458071331865387      5.152332469775356
135    2     19.304015126392748      4.458071331865384      5.152332469775356
136    2     15.443212101114202      4.458071331865384      5.152332469775356
137    2     11.582409075835653      4.458071331865384      5.152332469775356
138    2      7.721606050557103      4.458071331865384      5.152332469775356
139    2      3.860803025278553      4.458071331865384      5.152332469775356
140    2     27.025621176949848      4.458071331865384      5.152332469775356
141    2     21.234416639032027      1.114517832966349      5.152332469775356
142    2     17.373613613753477      1.114517832966346      5.152332469775356
143    2     13.512810588474927      1.114517832966346      5.152332469775356
144    2      9.652007563196378      1.114517832966346      5.152332469775356
145    2      5.791204537917832      1.114517832966346      5.152332469775356
146    2      1.930401512639278      1.114517832966346      5.152332469775356
147    2     25.095219664310576      1.114517832966346      5.152332469775356
148    2     32.816825714867676     21.175838826360575      7.516581822106875
149    2     28.956022689589123     21.175838826360575      7.516581822106875
150    2     25.095219664310573     21.175838826360575      7.516581822106875
151    2     21.234416639032023     21.175838826360575      7.516581822106875
152    2     17.373613613753474     21.175838826360572      7.516581822106875
153    2     13.512810588474924     21.175838826360572      7.516581822106875
154    2     36.677628740146218     21.175838826360572      7.516581822106875
155    2     30.886424202228397     17.832285327461538      7.516581822106875
156    2     27.025621176949848     17.832285327461538      7.516581822106875
157    2     23.164818151671298     17.832285327461534      7.516581822106875
158    2     19.304015126392748     17.832285327461534      7.516581822106875
159    2     15.443212101114199     17.832285327461534      7.516581822106875
160    2     11.582409075835649     17.832285327461534      7.516581822106875
161    2     34.747227227506947     17.832285327461534      7.516581822106875
162    2     28.956022689589123     14.488731828562498      7.516581822106875
163    2     25.095219664310576     14.488731828562498      7.516581822106875
164    2     21.234416639032027     14.488731828562496      7.516581822106875
165    2     17.373613613753474     14.488731828562496      7.516581822106875
166    2     13.512810588474924     14.488731828562496      7.516581822106875
167    2      9.652007563196374     14.488731828562496      7.516581822106875
168    2     32.816825714867676     14.488731828562496      7.516581822106875
169    2     27.025621176949848     11.145178329663461      7.516581822106875
170    2     23.164818151671298     11.145178329663461      7.516581822106875
171    2     19.304015126392748     11.145178329663461      7.516581822106875
172    2     15.443212101114199     11.145178329663461      7.516581822106875
173    2     11.582409075835649     11.145178329663459      7.516581822106875
174    2      7.721606050557099     11.145178329663459      7.516581822106875
175    2     30.886424202228397     11.145178329663459      7.516581822106875
176    2     25.095219664310576      7.801624830764425      7.516581822106875
177    2     21.234416639032027      7.801624830764425      7.516581822106875
178    2     17.373613613753474      7.801624830764425      7.516581822106875
179    2     13.512810588474924      7.801624830764425      7.516581822106875
180    2      9.652007563196378      7.801624830764423      7.516581822106875
181    2      5.791204537917828      7.801624830764423      7.516581822106875
182    2     28.956022689589126      7.801624830764423      7.516581822106875
183    2     23.164818151671298      4.458071331865387      7.516581822106875
184    2     19.304015126392748      4.458071331865384      7.516581822106875
185    2     15.443212101114202      4.458071331865384      7.516581822106875
186    2     11.582409075835653      4.458071331865384      7.516581822106875
187    2      7.721606050557103      4.458071331865384      7.516581822106875
188    2      3.860803025278553      4.458071331865384      7.516581822106875
189    2     27.025621176949848      4.458071331865384      7.516581822106875
190    2     21.234416639032027      1.114517832966349      7.516581822106875
191    2     17.373613613753477      1.114517832966346      7.516581822106875
192    2     13.512810588474927      1.114517832966346      7.516581822106875
193    2      9.652007563196378      1.114517832966346      7.516581822106875
194    2      5.791204537917832      1.114517832966346      7.516581822106875
195    2      1.930401512639278      1.114517832966346      7.516581822106875
196    2     25.095219664310576      1.114517832966346      7.516581822106875
197    2     34.746531334182571     20.060919908871064      8.069717343832723
198    2     30.888901433731494     20.062620300433096      8.395435813565459
199    2     27.025621503110600     20.060093198603493      8.049121300124890
200    2     23.162340699855601     20.062620639025873      8.395440708640017
201    2     19.304710847404085     20.060919787009119      8.069726586913978
202    2     15.445374498502234     20.040483436107838      8.351621374538320
203    2     11.580246865307247     20.040483224983021      8.351619199746720
204    2     32.819182091425617     16.719266205653870      8.395444578457029
205    2     28.967951770999427     16.724661786197892      8.397525876698694
206    2     25.083290657607176     16.724661554308131      8.397528243135724
207    2     21.232059666920488     16.719265967337215      8.395449893471698
208    2     17.356323090114806     16.748689869158650      8.379752867278896
209    2     13.512810248494111     16.719971557738234      8.052801585731386
210    2      9.669298205040640     16.748689468687036      8.379750147049609
211    2     30.885357543488425     13.374829228561136      8.049114790398395
212    2     27.025621013342025     13.360441107826297      8.397493249059270
213    2     23.165884978185105     13.374828948640761      8.049118389687447
214    2     19.318589736373912     13.348620973767469      8.371033837275004
215    2     15.455202724995551     13.383077290199767      8.395076074834677
216    2     11.570418455855201     13.383077398200854      8.395075190463889
217    2      7.707031885614485     13.348621276214022      8.371032313850110
218    2     28.955903607269985     10.027865930650959      8.395414271526558
219    2     25.095338425637962     10.027865894153424      8.395414690959115
220    2     21.219527906516305     10.056076682332394      8.371040459659069
221    2     17.374645017995444     10.031261319862734      8.037748496515004
222    2     13.512810716824180     10.027839066378846      8.395702152113168
223    2      9.650976137175926     10.031261548905164      8.037748287113821
224    2      5.806093382449790     10.056076690551336      8.371040215807231
225    2     27.025620985233630      6.687914597686877      8.069782563381098
226    2     23.182950859118179      6.656680461197333      8.379760441495455
227    2     19.317677793708935      6.693078820997852      8.395121313498594
228    2     15.440763689828758      6.688521999068903      8.395735527384581
229    2     11.584857735545858      6.688521994421720      8.395736670841753
230    2      7.707943304711637      6.693078607246384      8.395124255842823
231    2      3.842669998235909      6.656680169603652      8.379762000184471
232    2     25.078251040332834      3.355846525911245      8.351631205697013
233    2     21.236324922541218      3.342453872960408      8.052742462595278
234    2     17.375281857326446      3.328739579054580      8.395111974526136
235    2     13.512810775941807      3.342360128420180      8.037760625136158
236    2      9.650339190639885      3.328739668500821      8.395115801322467
237    2      5.789296145537346      3.342454202712239      8.052750640404842
238    2      1.947370343285491      3.355846800806636      8.351632874134888
239    2     23.145692942626283      0.008553919422902      8.351636639624081
240    2     19.339435100361744     -0.000483978817758      8.379751316777739
241    2     15.413764589007833      0.000182149637785      8.370998162334066
242    2     11.611857135901218      0.000182008027342      8.370999441028340
243    2      7.686185376321693     -0.000484412505166      8.379755596198951
244    2      3.879928486256470      0.008553693424182      8.351640483347150
245    2      0.000000528825315      0.000006606856550      8.504820633755971
246    2     34.706740520163784     20.037965377809993     10.343471599911700
247    2     30.904415383545558     20.063048365792021     10.838008313645554
248    2     27.025623191609878     20.015131306145047     10.313753140617974
249    2     23.146826683966982     20.063049541894983     10.838014564466643
250    2     19.344500768085169     20.037964172625031     10.343477488578269
251    2     15.768551844732738     19.513863899365390     10.679527470556105
252    2     11.257068563454016     19.513863733691579     10.679523407693098
253    2     32.827297178053378     16.732494241471805     10.838019964324888
254    2     29.064177052488823     16.780241002616876     10.841995575125434
255    2     24.987068841297802     16.780239224760173     10.841998020948143
256    2     21.223943427650084     16.732493745262367     10.838026678104166
257    2     17.005060875200510     17.376211366420350     10.702627820640574
258    2     13.512808126545139     16.672638114279085     10.317068482533369
259    2     10.020558639616583     17.376211210795152     10.702623393769811
260    2     30.846459682733727     13.397407068051134     10.313746785321461
261    2     27.025621406080113     13.249310009170729     10.841945248985322
262    2     23.204783957714106     13.397405490139567     10.313749045568063
263    2     19.665904557817303     12.768059833332060     10.696114545122887
264    2     15.438263713231196     13.390768831987334     10.828862402896343
265    2     11.587356420898702     13.390769314843180     10.828860872100607
266    2      7.359717774556918     12.768061768505195     10.696112345575431
267    2     28.948511408922350     10.014210691454045     10.837971943198708
268    2     25.102730518480321     10.014210261778917     10.837972405885516
269    2     20.890374146613826     10.647138214444409     10.696121708496484
270    2     17.338453506864504     10.010249042399680     10.293717397477408
271    2     13.512811026696964     10.158283156919998     10.828213559046890
272    2      9.687167789249935     10.010250971293825     10.293717525527402
273    2      6.135247694516459     10.647140405479902     10.696120565421522
274    2     27.025619601732817      6.733931773120819     10.343540954730567
275    2     23.550775780453137      6.038734410289772     10.702643298414952
276    2     19.315815787442226      6.674619396787801     10.828936050505542
277    2     15.553701008364609      6.623304562461535     10.828277309999795
278    2     11.471923012272486      6.623305699317319     10.828278755720296
279    2      7.709804596955893      6.674620336122522     10.828940136799579
280    2      3.474843980840630      6.038735243312291     10.702646181356462
281    2     24.783779394587739      3.899057048899337     10.679541129527220
282    2     21.195380770092797      3.366104894609207     10.317010724511924
283    2     17.390367205174964      3.339580647841981     10.828917127930621
284    2     13.512812317665086      3.384205378612622     10.293730967231342
285    2      9.635254284727070      3.339580634625954     10.828922745428233
286    2      5.830240034159972      3.366107521906629     10.317016853730493
287    2      2.241841273780596      3.899057673224234     10.679544086954143
288    2     22.528045594512008     -0.008000303116408     10.679561114716689
289    2     20.058525469853528     -0.010038920729554     10.702639606791662
290    2     14.737312611601128     -0.010304896945386     10.696078272485044
291    2     12.288313051313164     -0.010305453528703     10.696079327039747
292    2      6.967094753590421     -0.010039203065276     10.702646917742948
293    2      4.497575339835454     -0.008000474169066     10.679568135696558
294    2     32.976663472803018     21.179172615919317     11.517089569999284
295    2     28.797113597055866     21.146851508117415     11.474085799114308
296    2     25.254133798437213     21.146849865390937     11.474087736499282
297    2     21.074578996476632     21.179172591649163     11.517096074368663
298    2     17.514594445585480     21.094439199923830     11.504176461387781
299    2     27.025623331145969     17.934781235904740     11.451430041507946
300    2     23.101096602795785     17.869102824136032     11.898532394813557
301    2     19.221216834987484     17.969040910052790     11.517068404514127
302    2     13.512809094977461     18.784231686453555     11.467694102319587
303    2     36.536643516091644     21.094438027326955     11.504171148548414
304    2     30.950148548224799     17.869104764900388     11.898530658942986
305    2     25.006489240445582     14.437503607352530     11.451377741274959
306    2     21.338989387482673     14.365624061611106     11.474210461997542
307    2     15.368234187617087     15.749946886114438     11.482924078854861
308    2     11.657381724256876     15.749946241562181     11.482923280176458
309    2     34.830023560203259     17.969044142573736     11.517062207764395
310    2     29.044754788034066     14.437505126426450     11.451375773209659
311    2     27.025620895368281     11.071591926620135     11.898478316535622
312    2     23.110501452590206     11.297312814516193     11.473996858072431
313    2     17.437038323337152     12.109089760628116     11.447008901886852
314    2     13.512809163382418     12.334433492216412     11.889881223329661
315    2      9.588582624266229     12.109092273294472     11.447008353354951
316    2     32.712253751147358     14.365625676626898     11.474207310484102
317    2     25.172235524611477      7.661557084709683     11.517174117773701
318    2     19.205290752375863      9.046439143749405     11.447304166370163
319    2     15.535483673525695      8.969442699898133     11.425612391578429
320    2     11.490137514919720      8.969444739274973     11.425612459705938
321    2      7.820330722615600      9.046441619615582     11.447305275797962
322    2     30.940740996369144     11.297316511968816     11.473995650731680
323    2     27.025619997756316      4.620908194588800     11.504160522876910
324    2     21.323929595463252      5.434341900059801     11.482811449900584
325    2     17.438297903546015      5.535235311912974     11.889953350064870
326    2     13.512812359083718      5.466015702442305     11.425661065216433
327    2      9.587325251464481      5.535238098848225     11.889955969497889
328    2      5.701689960936745      5.434346282620603     11.482816926768349
329    2     28.879003090193379      7.661557276139793     11.517174423792138
330    2     23.024028791399459      2.310359341060897     11.467770244511390
331    2     19.468534584029175      2.220659589262835     11.482832270213715
332    2     15.281037137227782      2.249378597131926     11.447148495033733
333    2     11.744588393449529      2.249379068919624     11.447150150982310
334    2      7.557086386806661      2.220660231727414     11.482838548424004
335    2      4.001590282603508      2.310359851906729     11.467775612255716
336    2      5.779620007200177      3.336913187419685     12.886234767345114
337    2     13.512815008741251      3.354575877054653     12.835993422422534
338    2     21.245999226957530      3.336908742735150     12.886228149236048
339    2      9.661708239955097     10.025292914479138     12.835981009601900
340    2     17.363913094093384     10.025287898488751     12.835980680964308
341    2     13.512805768246723     16.731248342545378     12.886309334754966
342    2     27.025618301527384      6.675862588603334     12.923594930751658
343    2     23.178257155897047     13.381829856357703     12.859060395566365
344    2     30.872988130907370     13.381834410417918     12.859059112640770
345    2     19.294286363029489     20.066912138232883     12.923503639958092
346    2     27.025626584902174     20.045959420800781     12.859068140207475
347    2     34.756953069916214     20.066913773624538     12.923496659966103
0.000000000000000      0.000000000000000      0.000000000000000
27.025621176949848      0.000000000000000      0.000000000000000
13.512810588474924     23.404874492293263      0.000000000000000
0.000000000000000      0.000000000000000     37.821246761657591
}
Driver = ConjugateGradient {
  MaxForceComponent = 1E-4
  MaxSteps = 0
  LatticeOpt = No
  MovedAtoms = "1:-1"
  OutputPrefix = "geo_end"
  AppendGeometries = No
  ConvergentForcesOnly = Yes
  Constraints = {}
}
Hamiltonian = DFTB {
  Charge = 0
  EwaldParameter = 0.1
  Filling = Fermi {
    Temperature = 0.0036
    IndependentKFilling = No
  }
  KPointsAndWeights = {
0.  0.  0. 1.0
  }
  MaxAngularMomentum = {
    H = "s"
    Si = "p"
  }
  MaxSCCIterations = 100
  SCC = YES
  SlaterKosterFiles = Type2FileNames {
    Prefix = /user/panosetti/data/progs/DFTB/parameters/pbc/pbc-0-3/
    Separator = "-"
    Suffix = ".skf"
    LowerCaseTypeName = No
  }
  PolynomialRepulsive = {}
  OldRepulsiveSum = No
  OrbitalResolvedSCC = No
  OldSKInterpolation = No
  ReadInitialCharges = No
  InitialCharges = {}
  SCCTolerance = 1.000000000000000E-005
  Mixer = Broyden {
    MixingParameter = 0.200000000000000
    CachedIterations = -1
    InverseJacobiWeight = 1.000000000000000E-002
    MinimalWeight = 1.00000000000000
    MaximalWeight = 100000.000000000
    WeightFactor = 1.000000000000000E-002
  }
  ElectricField = {}
  DampXH = No
  SpinPolarisation = {}
  Eigensolver = DivideAndConquer {}
  Dispersion = {}
  ThirdOrder = No
  ThirdOrderFull = No
}
Options = {
  WriteResultsTag = Yes
  WriteEigenvectors = No
  WriteAutotestTag = No
  WriteDetailedXML = No
  WriteDetailedOut = Yes
  WriteBandOut = Yes
  AtomResolvedEnergies = No
  RandomSeed = 0
  WriteHS = No
  WriteRealHS = No
  MinimiseMemoryUsage = No
  ShowFoldedCoords = No
}
ParserOptions = {
  ParserVersion = 4
  WriteHSDInput = Yes
  WriteXMLInput = No
  StopAfterParsing = No
  IgnoreUnprocessedNodes = No
}
Analysis = {
  ProjectStates = {}
}
Parallel = {
  RowBlockSize = 32
  ColumnBlockSize = 32
  Groups = 1
}
