Geometry = GenFormat {
61  S
H    Si
1      1     11.582409075835647      8.906309322142173      2.861931711395688
2      1      7.718508045882461      8.917930368849040      2.861259247486378
3      1     15.446310105788838      8.917930368849031      2.861259247486380
4      1      9.660522672401900      5.577504422577177      2.861931704475178
5      1      5.791204537917817      5.561949772975050      2.861407557836226
6      1     13.504295479269409      5.577504422577179      2.861931704475180
7      1      7.712392852791186      2.234353940465613      2.861407546699756
8      1      3.870016223044479      2.234353940465590      2.861407546699758
9      1     11.582409075835635      2.225457518195746      2.861259248360396
10     2     11.582409075835647      8.916142663730767      4.364249352331518
11     2      7.721606050557098      8.916142663730767      4.364249352331518
12     2     15.443212101114197      8.916142663730765      4.364249352331518
13     2      9.652007563196372      5.572589164831729      4.364249352331518
14     2      5.791204537917823      5.572589164831729      4.364249352331518
15     2     13.512810588474922      5.572589164831728      4.364249352331518
16     2      7.721606050557098      2.229035665932691      4.364249352331518
17     2      3.860803025278549      2.229035665932691      4.364249352331518
18     2     11.582409075835647      2.229035665932690      4.364249352331518
19     2      9.652007563196372      7.801624830764421      5.152332469775356
20     2      5.791204537917823      7.801624830764420      5.152332469775356
21     2     13.512810588474922      7.801624830764420      5.152332469775356
22     2      7.721606050557098      4.458071331865383      5.152332469775356
23     2      3.860803025278549      4.458071331865383      5.152332469775356
24     2     11.582409075835647      4.458071331865382      5.152332469775356
25     2      5.791204537917824      1.114517832966344      5.152332469775356
26     2      1.930401512639275      1.114517832966344      5.152332469775356
27     2      9.652007563196374      1.114517832966343      5.152332469775356
28     2      9.742527833109271      8.038609761878501      7.510996241813646
29     2      5.920540755008383      7.991857045880304      7.561639376892757
30     2     13.693645262437316      8.023994949595163      7.496790415340984
31     2      7.901462285608681      4.627867303295842      7.452154216059515
32     2      3.938322149167569      4.624762188005410      7.455493770119090
33     2     11.738282989551276      4.547385573138412      7.503987727328666
34     2      5.945739845025868      1.238091281791746      7.452119086529547
35     2      2.000704639296583      1.262941382367391      7.612711710582388
36     2      9.813217278670447      1.258153650959276      7.593212986160019
37     2     11.719454262455425      6.856630979851476      7.963433494091549
38     2      7.877244877083601      6.838467044267625      8.331569780555993
39     2      3.998742345914635      6.832582683021326      8.325623202086607
40     2      9.788651277087720      3.548926765002971      8.385772688700149
41     2      5.923103977938765      3.513116481428213      8.001622911531779
42     2      2.106121013264716      3.538125323484187      8.448700194003221
43     2      7.844895086501608      0.216402465288558      8.436198805790507
44     2      4.035196265048396      0.261252874408480      8.376961058652546
45     2      0.114784480845672      0.141930477615867      8.592473322504981
46     2     11.934531840598705      7.124146927824144     10.240771060548273
47     2      8.381967412286436      6.513161013205103     10.668613678303535
48     2      3.802222860199107      6.477844597044005     10.693361141063999
49     2      9.612783739353315      4.356367169925076     10.675919309373139
50     2      6.051470454566805      3.789944134812135     10.269651401775782
51     2      2.544165142738398      4.322832466743184     10.745995376225546
52     2      7.298274456559661      0.486634749214401     10.836621016673289
53     2      4.812800703655494      0.461684908272281     10.698317187418318
54     2     10.128965896799432      8.176086185591901     11.508960149035685
55     2     13.673820807714431      8.156110363461854     11.481369495572526
56     2      6.102729975914550      5.841342095741362     11.462298377430741
57     2      7.859785554218027      2.852784879379848     11.508117362013929
58     2      4.342782422094393      2.781018141719786     11.587581297071319
59     2     11.865291396399179      5.113411203291017     11.520523708556384
60     2      6.181064800155831      3.873517344397327     12.983656232911489
61     2     11.850393101653474      7.233668132513595     12.920195897343220
0.000000000000000      0.000000000000000      0.000000000000000
11.582409075835649      0.000000000000000      0.000000000000000
5.791204537917825     10.030660496697113      0.000000000000000
0.000000000000000      0.000000000000000     37.821246761657591
}
Driver = ConjugateGradient {
  MaxForceComponent = 1E-4
  MaxSteps = 0
  LatticeOpt = No
  MovedAtoms = "1:-1"
  OutputPrefix = "geo_end"
  AppendGeometries = No
  ConvergentForcesOnly = Yes
  Constraints = {}
}
Hamiltonian = DFTB {
  EwaldParameter = 0.5
  Filling = Fermi {
    Temperature = 0.01
    IndependentKFilling = No
  }
  KPointsAndWeights = {
-0.33333333 -0.33333333  0.         1.0
-0.33333333  0.          0.         1.0
-0.33333333  0.33333333  0.         1.0
0.         -0.33333333  0.         1.0
0. 0. 0. 1.0
0.         0.33333333 0.         1.0
0.33333333 -0.33333333  0.         1.0
0.33333333 0.         0.         1.0
0.33333333 0.33333333 0.         1.0
  }
  MaxAngularMomentum = {
    H = s
    Si = p
  }
  SCC = YES
  SlaterKosterFiles = Type2FileNames {
    Prefix = /user/panosetti/data/progs/DFTB/parameters/pbc/pbc-0-3/
    Separator = "-"
    Suffix = ".skf"
    LowerCaseTypeName = No
  }
  PolynomialRepulsive = {}
  OldRepulsiveSum = No
  OrbitalResolvedSCC = No
  OldSKInterpolation = No
  Charge = 0.000000000000000E+000
  ReadInitialCharges = No
  InitialCharges = {}
  SCCTolerance = 1.000000000000000E-005
  MaxSCCIterations = 100
  Mixer = Broyden {
    MixingParameter = 0.200000000000000
    CachedIterations = -1
    InverseJacobiWeight = 1.000000000000000E-002
    MinimalWeight = 1.00000000000000
    MaximalWeight = 100000.000000000
    WeightFactor = 1.000000000000000E-002
  }
  ElectricField = {}
  DampXH = No
  SpinPolarisation = {}
  Eigensolver = DivideAndConquer {}
  Dispersion = {}
  ManyBodyDispersion = {}
  ThirdOrder = No
  ThirdOrderFull = No
}
Options = {
  WriteResultsTag = Yes
  WriteEigenvectors = No
  WriteAutotestTag = No
  WriteDetailedXML = No
  WriteDetailedOut = Yes
  WriteBandOut = Yes
  AtomResolvedEnergies = No
  RandomSeed = 0
  WriteHS = No
  WriteRealHS = No
  WriteCPA = No
  MinimiseMemoryUsage = No
  ShowFoldedCoords = No
}
ParserOptions = {
  IgnoreUnprocessedNodes = Yes
  ParserVersion = 4
  WriteHSDInput = Yes
  WriteXMLInput = No
  StopAfterParsing = No
}
Analysis = {
  ProjectStates = {}
}
Parallel = {
  RowBlockSize = 32
  ColumnBlockSize = 32
  Groups = 1
}
