Geometry = GenFormat {
577  S
H    Si
1      1     46.318998129090190     28.968976928698613      2.862027160928617
2      1     42.462411266828212     28.987636406178524      2.861767594871368
3      1     38.605443448328302     28.968892498778960      2.862304951054584
4      1     34.747227311575870     28.986824079463421      2.861896788462296
5      1     30.889011079767812     28.968892521555475      2.862306050754668
6      1     27.032043143089961     28.987636433037853      2.861768667539194
7      1     23.175456256098347     28.968977080949394      2.862027703219083
8      1     19.313114660719801     28.972209170218250      2.860299938012378
9      1     50.181339742340072     28.972209186097071      2.860299774923433
10     1     44.398780705509445     25.633647004766893      2.862164821766658
11     1     40.533444302846682     25.635535502692782      2.862285947594271
12     1     36.681223028785993     25.637256349831809      2.862258195622368
13     1     32.813231569423699     25.637256343544866      2.862258287096179
14     1     28.961010213770226     25.635535532882059      2.862285691503677
15     1     25.095673689540423     25.633647037395836      2.862163891839804
16     1     21.247084505755854     25.628939247774191      2.862027570328400
17     1     17.373613576699068     25.597534204708747      2.861264822882957
18     1     48.247369813716531     25.628939243463439      2.862028420671479
19     1     42.467747998989886     22.285223184841882      2.862288241112430
20     1     38.607257959903762     22.289909722309744      2.861516433418478
21     1     34.747227305037015     22.286127175076729      2.862310824284750
22     1     30.887196653015987     22.289909740261542      2.861514890685469
23     1     27.026706475844477     22.285223163013672      2.862285567262458
24     1     23.159218454631731     22.279707342815023      2.861768380799794
25     1     19.307260649291148     22.272585557757168      2.862509092198841
26     1     15.439966477706314     22.272585546618817      2.862510119390500
27     1     46.335235859547183     22.279707293642009      2.861770882953524
28     1     40.543127691243775     18.948241181171650      2.862262109177932
29     1     36.673966917873763     18.948916310218436      2.862312467334128
30     1     32.820487650713773     18.948916283989163      2.862310992817763
31     1     28.951326807644048     18.948241134461639      2.862258383589970
32     1     25.103935078286760     18.948846952404029      2.862305866246096
33     1     21.230561342507624     18.948028151723367      2.862562302054877
34     1     17.373613505841362     18.940234878282279      2.861610617227694
35     1     13.516665788902378     18.948028154530601      2.862565004879004
36     1     44.390519438079245     18.948846944145124      2.862310007958804
37     1     38.609131974202008     15.598462395034288      2.862262275709897
38     1     34.747227305254448     15.604140591899998      2.861516851663667
39     1     30.885322547019083     15.598462325031434      2.862258861908270
40     1     27.017514132619528     15.598568176643846      2.861897212702178
41     1     23.167554039823230     15.595104215816557      2.862580806204084
42     1     19.308376334342121     15.603170988804427      2.862507041127444
43     1     15.438850851422073     15.603171013988685      2.862508676697119
44     1     11.579673194724460     15.595104314370856      2.862584870693121
45     1     42.476940258778633     15.598568327189732      2.861902069974640
46     1     36.681530960980098     12.263201277376591      2.862288717723391
47     1     32.812923533420893     12.263201271964558      2.862286796014358
48     1     28.962151280013060     12.266220559235762      2.862305883676711
49     1     25.089534339393516     12.266136716711665      2.862580393618726
50     1     21.234997664545087     12.260030696357401      2.861597373672354
51     1     17.373613603600987     12.255491157853601      2.862429476999421
52     1     13.512229530126415     12.260030763965560      2.861600367999714
53     1      9.657692847405171     12.266136754051521      2.862585170221258
54     1     40.532303273043247     12.266220573524434      2.862310376794692
55     1     34.747227209668040      8.916666064253329      2.862165448327632
56     1     30.874402577649054      8.916616647622408      2.861768434782413
57     1     27.024755319097459      8.912189911147479      2.862561204903194
58     1     23.166931398684437      8.919957593064410      2.862505450306987
59     1     19.300374446890036      8.918243697625275      2.862428259233630
60     1     15.446852822488532      8.918243732549515      2.862429685983788
61     1     11.580295817505764      8.919957624572850      2.862509272028136
62     1      7.722471902215597      8.912190013997188      2.862565645003491
63     1     38.620051835324041      8.916616736546993      2.861771374382830
64     1     32.818855625066902      5.586044231069799      2.862027608408652
65     1     28.942256160219046      5.584284137570275      2.862507576011228
66     1     25.089532242204363      5.575871884024780      2.861607690217214
67     1     21.232168682690052      5.568850234666358      2.862505141170872
68     1     17.373613636759288      5.571917442065193      2.861597337418175
69     1     13.515058567639686      5.568850236070513      2.862507594543229
70     1      9.657694892553078      5.575871933901632      2.861611360394108
71     1      5.804971039406671      5.584284145068741      2.862510647581490
72     1     36.675598851750387      5.586044211472090      2.862028813618722
73     1     30.854922368623434      2.247222524105407      2.861263586987648
74     1     27.008609019377054      2.235109001326637      2.862507217381766
75     1     23.167807574076100      2.231760514147110      2.862560485226480
76     1     19.295594001547467      2.230737707679221      2.862579807148361
77     1     15.451633314566319      2.230737702810655      2.862580877412033
78     1     11.579419676958503      2.231760539338844      2.862562827988199
79     1      7.738618150864236      2.235109042393516      2.862509545302101
80     1      3.892304843025982      2.247222546141836      2.861265065493514
81     1     34.747227187962643      2.239542311060388      2.860299927176200
82     2     46.329636303342589     28.977463657124996      4.364249352331518
83     2     42.468833278064039     28.977463657124996      4.364249352331518
84     2     38.608030252785490     28.977463657124996      4.364249352331518
85     2     34.747227227506940     28.977463657124996      4.364249352331518
86     2     30.886424202228390     28.977463657124993      4.364249352331518
87     2     27.025621176949841     28.977463657124993      4.364249352331518
88     2     23.164818151671291     28.977463657124993      4.364249352331518
89     2     19.304015126392741     28.977463657124993      4.364249352331518
90     2     50.190439328621139     28.977463657124993      4.364249352331518
91     2     44.399234790703318     25.633910158225959      4.364249352331518
92     2     40.538431765424761     25.633910158225959      4.364249352331518
93     2     36.677628740146218     25.633910158225959      4.364249352331518
94     2     32.816825714867662     25.633910158225959      4.364249352331518
95     2     28.956022689589116     25.633910158225955      4.364249352331518
96     2     25.095219664310566     25.633910158225955      4.364249352331518
97     2     21.234416639032016     25.633910158225955      4.364249352331518
98     2     17.373613613753466     25.633910158225955      4.364249352331518
99     2     48.260037815981860     25.633910158225955      4.364249352331518
100    2     42.468833278064039     22.290356659326921      4.364249352331518
101    2     38.608030252785490     22.290356659326921      4.364249352331518
102    2     34.747227227506940     22.290356659326918      4.364249352331518
103    2     30.886424202228390     22.290356659326918      4.364249352331518
104    2     27.025621176949841     22.290356659326918      4.364249352331518
105    2     23.164818151671291     22.290356659326918      4.364249352331518
106    2     19.304015126392741     22.290356659326918      4.364249352331518
107    2     15.443212101114192     22.290356659326918      4.364249352331518
108    2     46.329636303342589     22.290356659326918      4.364249352331518
109    2     40.538431765424768     18.946803160427883      4.364249352331518
110    2     36.677628740146218     18.946803160427883      4.364249352331518
111    2     32.816825714867669     18.946803160427883      4.364249352331518
112    2     28.956022689589116     18.946803160427883      4.364249352331518
113    2     25.095219664310566     18.946803160427883      4.364249352331518
114    2     21.234416639032016     18.946803160427880      4.364249352331518
115    2     17.373613613753466     18.946803160427880      4.364249352331518
116    2     13.512810588474913     18.946803160427880      4.364249352331518
117    2     44.399234790703318     18.946803160427876      4.364249352331518
118    2     38.608030252785490     15.603249661528844      4.364249352331518
119    2     34.747227227506940     15.603249661528844      4.364249352331518
120    2     30.886424202228390     15.603249661528844      4.364249352331518
121    2     27.025621176949841     15.603249661528844      4.364249352331518
122    2     23.164818151671291     15.603249661528842      4.364249352331518
123    2     19.304015126392741     15.603249661528842      4.364249352331518
124    2     15.443212101114192     15.603249661528842      4.364249352331518
125    2     11.582409075835642     15.603249661528842      4.364249352331518
126    2     42.468833278064039     15.603249661528841      4.364249352331518
127    2     36.677628740146218     12.259696162629808      4.364249352331518
128    2     32.816825714867669     12.259696162629808      4.364249352331518
129    2     28.956022689589119     12.259696162629805      4.364249352331518
130    2     25.095219664310569     12.259696162629805      4.364249352331518
131    2     21.234416639032020     12.259696162629805      4.364249352331518
132    2     17.373613613753470     12.259696162629805      4.364249352331518
133    2     13.512810588474913     12.259696162629805      4.364249352331518
134    2      9.652007563196371     12.259696162629805      4.364249352331518
135    2     40.538431765424761     12.259696162629805      4.364249352331518
136    2     34.747227227506940      8.916142663730771      4.364249352331518
137    2     30.886424202228390      8.916142663730767      4.364249352331518
138    2     27.025621176949844      8.916142663730767      4.364249352331518
139    2     23.164818151671295      8.916142663730767      4.364249352331518
140    2     19.304015126392745      8.916142663730767      4.364249352331518
141    2     15.443212101114195      8.916142663730767      4.364249352331518
142    2     11.582409075835642      8.916142663730767      4.364249352331518
143    2      7.721606050557092      8.916142663730767      4.364249352331518
144    2     38.608030252785490      8.916142663730767      4.364249352331518
145    2     32.816825714867669      5.572589164831733      4.364249352331518
146    2     28.956022689589119      5.572589164831729      4.364249352331518
147    2     25.095219664310569      5.572589164831729      4.364249352331518
148    2     21.234416639032020      5.572589164831729      4.364249352331518
149    2     17.373613613753470      5.572589164831729      4.364249352331518
150    2     13.512810588474913      5.572589164831729      4.364249352331518
151    2      9.652007563196371      5.572589164831729      4.364249352331518
152    2      5.791204537917814      5.572589164831729      4.364249352331518
153    2     36.677628740146218      5.572589164831726      4.364249352331518
154    2     30.886424202228394      2.229035665932692      4.364249352331518
155    2     27.025621176949844      2.229035665932692      4.364249352331518
156    2     23.164818151671295      2.229035665932692      4.364249352331518
157    2     19.304015126392745      2.229035665932692      4.364249352331518
158    2     15.443212101114195      2.229035665932692      4.364249352331518
159    2     11.582409075835642      2.229035665932692      4.364249352331518
160    2      7.721606050557092      2.229035665932692      4.364249352331518
161    2      3.860803025278543      2.229035665932692      4.364249352331518
162    2     34.747227227506940      2.229035665932688      4.364249352331518
163    2     44.399234790703318     27.862945824158651      5.152332469775356
164    2     40.538431765424761     27.862945824158651      5.152332469775356
165    2     36.677628740146218     27.862945824158651      5.152332469775356
166    2     32.816825714867662     27.862945824158651      5.152332469775356
167    2     28.956022689589116     27.862945824158647      5.152332469775356
168    2     25.095219664310566     27.862945824158647      5.152332469775356
169    2     21.234416639032016     27.862945824158647      5.152332469775356
170    2     17.373613613753466     27.862945824158647      5.152332469775356
171    2     48.260037815981860     27.862945824158647      5.152332469775356
172    2     42.468833278064039     24.519392325259613      5.152332469775356
173    2     38.608030252785490     24.519392325259613      5.152332469775356
174    2     34.747227227506940     24.519392325259609      5.152332469775356
175    2     30.886424202228390     24.519392325259609      5.152332469775356
176    2     27.025621176949841     24.519392325259609      5.152332469775356
177    2     23.164818151671291     24.519392325259609      5.152332469775356
178    2     19.304015126392741     24.519392325259609      5.152332469775356
179    2     15.443212101114192     24.519392325259609      5.152332469775356
180    2     46.329636303342589     24.519392325259609      5.152332469775356
181    2     40.538431765424768     21.175838826360575      5.152332469775356
182    2     36.677628740146218     21.175838826360575      5.152332469775356
183    2     32.816825714867669     21.175838826360572      5.152332469775356
184    2     28.956022689589116     21.175838826360572      5.152332469775356
185    2     25.095219664310566     21.175838826360572      5.152332469775356
186    2     21.234416639032016     21.175838826360572      5.152332469775356
187    2     17.373613613753466     21.175838826360572      5.152332469775356
188    2     13.512810588474920     21.175838826360568      5.152332469775356
189    2     44.399234790703311     21.175838826360568      5.152332469775356
190    2     38.608030252785490     17.832285327461534      5.152332469775356
191    2     34.747227227506940     17.832285327461534      5.152332469775356
192    2     30.886424202228390     17.832285327461534      5.152332469775356
193    2     27.025621176949841     17.832285327461534      5.152332469775356
194    2     23.164818151671291     17.832285327461534      5.152332469775356
195    2     19.304015126392741     17.832285327461534      5.152332469775356
196    2     15.443212101114192     17.832285327461534      5.152332469775356
197    2     11.582409075835642     17.832285327461534      5.152332469775356
198    2     42.468833278064039     17.832285327461534      5.152332469775356
199    2     36.677628740146218     14.488731828562500      5.152332469775356
200    2     32.816825714867669     14.488731828562500      5.152332469775356
201    2     28.956022689589116     14.488731828562500      5.152332469775356
202    2     25.095219664310566     14.488731828562500      5.152332469775356
203    2     21.234416639032020     14.488731828562498      5.152332469775356
204    2     17.373613613753470     14.488731828562498      5.152332469775356
205    2     13.512810588474920     14.488731828562498      5.152332469775356
206    2      9.652007563196371     14.488731828562496      5.152332469775356
207    2     40.538431765424761     14.488731828562496      5.152332469775356
208    2     34.747227227506940     11.145178329663462      5.152332469775356
209    2     30.886424202228390     11.145178329663459      5.152332469775356
210    2     27.025621176949844     11.145178329663459      5.152332469775356
211    2     23.164818151671295     11.145178329663459      5.152332469775356
212    2     19.304015126392745     11.145178329663459      5.152332469775356
213    2     15.443212101114195     11.145178329663459      5.152332469775356
214    2     11.582409075835642     11.145178329663459      5.152332469775356
215    2      7.721606050557092     11.145178329663459      5.152332469775356
216    2     38.608030252785490     11.145178329663459      5.152332469775356
217    2     32.816825714867669      7.801624830764425      5.152332469775356
218    2     28.956022689589119      7.801624830764421      5.152332469775356
219    2     25.095219664310569      7.801624830764421      5.152332469775356
220    2     21.234416639032020      7.801624830764421      5.152332469775356
221    2     17.373613613753474      7.801624830764421      5.152332469775356
222    2     13.512810588474920      7.801624830764421      5.152332469775356
223    2      9.652007563196371      7.801624830764421      5.152332469775356
224    2      5.791204537917821      7.801624830764421      5.152332469775356
225    2     36.677628740146211      7.801624830764418      5.152332469775356
226    2     30.886424202228394      4.458071331865384      5.152332469775356
227    2     27.025621176949844      4.458071331865384      5.152332469775356
228    2     23.164818151671295      4.458071331865384      5.152332469775356
229    2     19.304015126392745      4.458071331865384      5.152332469775356
230    2     15.443212101114195      4.458071331865384      5.152332469775356
231    2     11.582409075835642      4.458071331865384      5.152332469775356
232    2      7.721606050557092      4.458071331865384      5.152332469775356
233    2      3.860803025278543      4.458071331865384      5.152332469775356
234    2     34.747227227506940      4.458071331865380      5.152332469775356
235    2     28.956022689589119      1.114517832966342      5.152332469775356
236    2     25.095219664310569      1.114517832966342      5.152332469775356
237    2     21.234416639032016      1.114517832966342      5.152332469775356
238    2     17.373613613753466      1.114517832966342      5.152332469775356
239    2     13.512810588474913      1.114517832966342      5.152332469775356
240    2      9.652007563196371      1.114517832966342      5.152332469775356
241    2      5.791204537917814      1.114517832966342      5.152332469775356
242    2      1.930401512639271      1.114517832966339      5.152332469775356
243    2     32.816825714867662      1.114517832966339      5.152332469775356
244    2     44.399234790703318     27.862945824158651      7.516581822106875
245    2     40.538431765424761     27.862945824158651      7.516581822106875
246    2     36.677628740146218     27.862945824158651      7.516581822106875
247    2     32.816825714867662     27.862945824158651      7.516581822106875
248    2     28.956022689589116     27.862945824158647      7.516581822106875
249    2     25.095219664310566     27.862945824158647      7.516581822106875
250    2     21.234416639032016     27.862945824158647      7.516581822106875
251    2     17.373613613753466     27.862945824158647      7.516581822106875
252    2     48.260037815981860     27.862945824158647      7.516581822106875
253    2     42.468833278064039     24.519392325259613      7.516581822106875
254    2     38.608030252785490     24.519392325259613      7.516581822106875
255    2     34.747227227506940     24.519392325259609      7.516581822106875
256    2     30.886424202228390     24.519392325259609      7.516581822106875
257    2     27.025621176949841     24.519392325259609      7.516581822106875
258    2     23.164818151671291     24.519392325259609      7.516581822106875
259    2     19.304015126392741     24.519392325259609      7.516581822106875
260    2     15.443212101114192     24.519392325259609      7.516581822106875
261    2     46.329636303342589     24.519392325259609      7.516581822106875
262    2     40.538431765424768     21.175838826360575      7.516581822106875
263    2     36.677628740146218     21.175838826360575      7.516581822106875
264    2     32.816825714867669     21.175838826360572      7.516581822106875
265    2     28.956022689589116     21.175838826360572      7.516581822106875
266    2     25.095219664310566     21.175838826360572      7.516581822106875
267    2     21.234416639032016     21.175838826360572      7.516581822106875
268    2     17.373613613753466     21.175838826360572      7.516581822106875
269    2     13.512810588474920     21.175838826360568      7.516581822106875
270    2     44.399234790703311     21.175838826360568      7.516581822106875
271    2     38.608030252785490     17.832285327461534      7.516581822106875
272    2     34.747227227506940     17.832285327461534      7.516581822106875
273    2     30.886424202228390     17.832285327461534      7.516581822106875
274    2     27.025621176949841     17.832285327461534      7.516581822106875
275    2     23.164818151671291     17.832285327461534      7.516581822106875
276    2     19.304015126392741     17.832285327461534      7.516581822106875
277    2     15.443212101114192     17.832285327461534      7.516581822106875
278    2     11.582409075835642     17.832285327461534      7.516581822106875
279    2     42.468833278064039     17.832285327461534      7.516581822106875
280    2     36.677628740146218     14.488731828562500      7.516581822106875
281    2     32.816825714867669     14.488731828562500      7.516581822106875
282    2     28.956022689589116     14.488731828562500      7.516581822106875
283    2     25.095219664310566     14.488731828562500      7.516581822106875
284    2     21.234416639032020     14.488731828562498      7.516581822106875
285    2     17.373613613753470     14.488731828562498      7.516581822106875
286    2     13.512810588474920     14.488731828562498      7.516581822106875
287    2      9.652007563196371     14.488731828562496      7.516581822106875
288    2     40.538431765424761     14.488731828562496      7.516581822106875
289    2     34.747227227506940     11.145178329663462      7.516581822106875
290    2     30.886424202228390     11.145178329663459      7.516581822106875
291    2     27.025621176949844     11.145178329663459      7.516581822106875
292    2     23.164818151671295     11.145178329663459      7.516581822106875
293    2     19.304015126392745     11.145178329663459      7.516581822106875
294    2     15.443212101114195     11.145178329663459      7.516581822106875
295    2     11.582409075835642     11.145178329663459      7.516581822106875
296    2      7.721606050557092     11.145178329663459      7.516581822106875
297    2     38.608030252785490     11.145178329663459      7.516581822106875
298    2     32.816825714867669      7.801624830764425      7.516581822106875
299    2     28.956022689589119      7.801624830764421      7.516581822106875
300    2     25.095219664310569      7.801624830764421      7.516581822106875
301    2     21.234416639032020      7.801624830764421      7.516581822106875
302    2     17.373613613753474      7.801624830764421      7.516581822106875
303    2     13.512810588474920      7.801624830764421      7.516581822106875
304    2      9.652007563196371      7.801624830764421      7.516581822106875
305    2      5.791204537917821      7.801624830764421      7.516581822106875
306    2     36.677628740146211      7.801624830764418      7.516581822106875
307    2     30.886424202228394      4.458071331865384      7.516581822106875
308    2     27.025621176949844      4.458071331865384      7.516581822106875
309    2     23.164818151671295      4.458071331865384      7.516581822106875
310    2     19.304015126392745      4.458071331865384      7.516581822106875
311    2     15.443212101114195      4.458071331865384      7.516581822106875
312    2     11.582409075835642      4.458071331865384      7.516581822106875
313    2      7.721606050557092      4.458071331865384      7.516581822106875
314    2      3.860803025278543      4.458071331865384      7.516581822106875
315    2     34.747227227506940      4.458071331865380      7.516581822106875
316    2     28.956022689589119      1.114517832966342      7.516581822106875
317    2     25.095219664310569      1.114517832966342      7.516581822106875
318    2     21.234416639032016      1.114517832966342      7.516581822106875
319    2     17.373613613753466      1.114517832966342      7.516581822106875
320    2     13.512810588474913      1.114517832966342      7.516581822106875
321    2      9.652007563196371      1.114517832966342      7.516581822106875
322    2      5.791204537917814      1.114517832966342      7.516581822106875
323    2      1.930401512639271      1.114517832966339      7.516581822106875
324    2     32.816825714867662      1.114517832966339      7.516581822106875
325    2     46.329312727981169     26.748241494808610      8.069270921854052
326    2     42.472234490583958     26.750195782363921      8.394843815712468
327    2     38.608081951916837     26.748335307625116      8.045641280625563
328    2     34.747226584756440     26.749953939455846      8.391410655872670
329    2     30.886372278400685     26.748335832244621      8.045648108620854
330    2     27.022220612752619     26.750197656196455      8.394845945555257
331    2     23.165141830750986     26.748242593765230      8.069272292639923
332    2     19.303525050560900     26.727513846572645      8.345820634258809
333    2     15.443701909285100     26.727512933153807      8.345820806274180
334    2     44.402466114476596     23.406935282645584      8.394843817622936
335    2     40.552450868593318     23.412967238488253      8.397160127146570
336    2     36.667037939133245     23.413703817184455      8.396231296518737
337    2     32.827416632183649     23.413704786808065      8.396232237217285
338    2     28.942004775114409     23.412970053892685      8.397161756759074
339    2     25.091988514551002     23.406937882731697      8.394844923024559
340    2     21.216914662674380     23.435222748018305      8.378976834902948
341    2     17.373613216697642     23.407261249235102      8.053230551200761
342    2     13.530312189683528     23.435222506931886      8.378975259019906
343    2     42.468777838853981     20.061413373332904      8.045655227653043
344    2     38.610382345385133     20.047735126376978      8.396231846467471
345    2     34.747227820549362     20.061321938003505      8.023845048461501
346    2     30.884074387007018     20.047736027668908      8.396231787618229
347    2     27.025676368936505     20.061413984579300      8.045646393291968
348    2     23.178252892362249     20.036774851306696      8.367194109041266
349    2     19.315984571963412     20.070715025095030      8.394376462283038
350    2     15.431240378866272     20.070714331653797      8.394376130469652
351    2     11.568971753947137     20.036771829525037      8.367193137283481
352    2     40.539753453035516     16.717006507383708      8.391410077489368
353    2     36.690571901472040     16.722526363159002      8.396230816147604
354    2     32.803885395474950     16.722527131757193      8.396230445421033
355    2     28.954702834609801     16.717007151694915      8.391409274986446
356    2     25.080034497919254     16.743890478476722      8.368752942405280
357    2     21.235570951257117     16.718475153274092      8.035180969838414
358    2     17.373611876976621     16.716732288834262      8.394844437363858
359    2     13.511655217321364     16.718474751653766      8.035186670575307
360    2      9.667193415665658     16.743893291391824      8.368751622695275
361    2     38.607923608969848     13.374217879615383      8.045654754136566
362    2     34.747229289803862     13.358029046078407      8.397158934927031
363    2     30.886531738104576     13.374217625516824      8.045643495804939
364    2     27.040650568984603     13.348004986043257      8.368752974832168
365    2     23.179116549056602     13.382471201872551      8.391212564473237
366    2     19.300721931006542     13.377734241107925      8.393907517385980
367    2     15.446502575191772     13.377734665736773      8.393907382396595
368    2     11.568109069041832     13.382471498238880      8.391212229288501
369    2      7.706574864289666     13.348002047166458      8.368751738128045
370    2     36.677460934194961     10.026834585141344      8.394842925826962
371    2     32.816996470351555     10.026834094661615      8.394842568333825
372    2     28.941481647696687     10.054571499730409      8.367192720514304
373    2     25.096408471885368     10.031309533376934      8.035178641997167
374    2     21.235816926854678     10.026052413422905      8.393908393412305
375    2     17.373612607630381     10.030662534167385      8.016519578679983
376    2     13.511407941253662     10.026052726460712      8.393908287471209
377    2      9.650818643710998     10.031309269287020      8.035189494896478
378    2      5.805748128973019     10.054574694988661      8.367192643502440
379    2     34.747227995173198      6.687482933522258      8.069272101132961
380    2     30.903955076600251      6.656779737671934      8.378975820126765
381    2     27.039740647555220      6.692779823245615      8.394376588863782
382    2     23.163919587624925      6.687627993306085      8.394844510744891
383    2     19.308707394283591      6.688201475630874      8.393907956899207
384    2     15.438517874938084      6.688201309724479      8.393908290263564