Geometry = GenFormat {
61  S
H    Si
1      1     11.582409075835647      8.906309322142173      2.861931711395688
2      1      7.718508045882461      8.917930368849040      2.861259247486378
3      1     15.446310105788838      8.917930368849031      2.861259247486380
4      1      9.660522672401900      5.577504422577177      2.861931704475178
5      1      5.791204537917817      5.561949772975050      2.861407557836226
6      1     13.504295479269409      5.577504422577179      2.861931704475180
7      1      7.712392852791186      2.234353940465613      2.861407546699756
8      1      3.870016223044479      2.234353940465590      2.861407546699758
9      1     11.582409075835635      2.225457518195746      2.861259248360396
10     2     11.582409075835647      8.916142663730767      4.364249352331518
11     2      7.721606050557098      8.916142663730767      4.364249352331518
12     2     15.443212101114197      8.916142663730765      4.364249352331518
13     2      9.652007563196372      5.572589164831729      4.364249352331518
14     2      5.791204537917823      5.572589164831729      4.364249352331518
15     2     13.512810588474922      5.572589164831728      4.364249352331518
16     2      7.721606050557098      2.229035665932691      4.364249352331518
17     2      3.860803025278549      2.229035665932691      4.364249352331518
18     2     11.582409075835647      2.229035665932690      4.364249352331518
19     2      9.652007563196372      7.801624830764421      5.152332469775356
20     2      5.791204537917823      7.801624830764420      5.152332469775356
21     2     13.512810588474922      7.801624830764420      5.152332469775356
22     2      7.721606050557098      4.458071331865383      5.152332469775356
23     2      3.860803025278549      4.458071331865383      5.152332469775356
24     2     11.582409075835647      4.458071331865382      5.152332469775356
25     2      5.791204537917824      1.114517832966344      5.152332469775356
26     2      1.930401512639275      1.114517832966344      5.152332469775356
27     2      9.652007563196374      1.114517832966343      5.152332469775356
28     2      9.617250589171608      7.663255509752557      7.541781669819038
29     2      5.830930624052867      7.766865655547026      7.626587884881378
30     2     13.504266195861367      7.729548881723607      7.444474444294528
31     2      7.771286554670474      4.437379325610681      7.473127524809838
32     2      3.807434353129111      4.424459830041398      7.416152878402682
33     2     11.493507935413241      4.421796726620729      7.532922707691148
34     2      5.754584551452833      1.027683820603835      7.404130125479209
35     2      1.816759480945118      0.987818453871519      7.464562090302803
36     2      9.678412998119855      1.070426765702695      7.579017713110268
37     2     11.619406813265254      6.632351524717351      8.366659254943405
38     2      7.703051681933245      6.528031738612935      8.544184812147469
39     2      3.812339328918797      6.592771073976213      8.306974020688818
40     2      9.577473343528935      3.275028046462467      8.456365944816223
41     2      5.781293719522410      3.304383803700463      7.925209789781944
42     2      1.854932911157314      3.238400793551143      8.123387397606658
43     2      7.642214576030974     -0.089025105492572      8.234032020752643
44     2      3.790995021193766     -0.094442655545939      8.151228191026703
45     2     -0.023143561719052     -0.047162425646097      8.577682506223363
46     2     10.955934953818506      5.788191994359582     12.215477533636344
47     2      7.659315629030212      5.511856714475522     10.828729608567491
48     2      2.954911817653811      5.292311466326803     10.301126498923189
49     2      8.986707407808851      3.267700486783036     10.803798429162109
50     2      5.564708204309643      2.708041129442812     10.112054366171872
51     2      1.733640955064990      3.090229552631695     10.529625489946685
52     2      6.426561662972843     -0.797578576829653     10.308759404775397
53     2      3.946945441428270     -0.747985772478008     10.502357346890149
54     2      8.947825661797792      7.182763691631918     12.092788713229233
55     2     12.535347924340323      6.784097198635974     10.614215217731228
56     2      5.270414462951770      4.750957039729297     11.342074158578043
57     2      7.198559354702685      1.451172737726722     11.258245595897920
58     2      3.629785678805367      1.608825794322443     10.992785651701023
59     2     11.162397755584630      3.356614553286684     12.043919231303637
60     2      5.278090264303842      2.543102185987897     12.573205479158274
61     2     10.676871246457830      5.612673473053128     14.450142965389812
0.000000000000000      0.000000000000000      0.000000000000000
11.582409075835649      0.000000000000000      0.000000000000000
5.791204537917825     10.030660496697113      0.000000000000000
0.000000000000000      0.000000000000000     37.821246761657591
}
Driver = ConjugateGradient {
  MaxForceComponent = 1E-4
  MaxSteps = 0
  LatticeOpt = No
  MovedAtoms = "1:-1"
  OutputPrefix = "geo_end"
  AppendGeometries = No
  ConvergentForcesOnly = Yes
  Constraints = {}
}
Hamiltonian = DFTB {
  EwaldParameter = 0.5
  Filling = Fermi {
    Temperature = 0.01
    IndependentKFilling = No
  }
  KPointsAndWeights = {
-0.33333333 -0.33333333  0.         1.0
-0.33333333  0.          0.         1.0
-0.33333333  0.33333333  0.         1.0
0.         -0.33333333  0.         1.0
0. 0. 0. 1.0
0.         0.33333333 0.         1.0
0.33333333 -0.33333333  0.         1.0
0.33333333 0.         0.         1.0
0.33333333 0.33333333 0.         1.0
  }
  MaxAngularMomentum = {
    H = s
    Si = p
  }
  SCC = YES
  SlaterKosterFiles = Type2FileNames {
    Prefix = /user/panosetti/data/progs/DFTB/parameters/pbc/pbc-0-3/
    Separator = "-"
    Suffix = ".skf"
    LowerCaseTypeName = No
  }
  PolynomialRepulsive = {}
  OldRepulsiveSum = No
  OrbitalResolvedSCC = No
  OldSKInterpolation = No
  Charge = 0.000000000000000E+000
  ReadInitialCharges = No
  InitialCharges = {}
  SCCTolerance = 1.000000000000000E-005
  MaxSCCIterations = 100
  Mixer = Broyden {
    MixingParameter = 0.200000000000000
    CachedIterations = -1
    InverseJacobiWeight = 1.000000000000000E-002
    MinimalWeight = 1.00000000000000
    MaximalWeight = 100000.000000000
    WeightFactor = 1.000000000000000E-002
  }
  ElectricField = {}
  DampXH = No
  SpinPolarisation = {}
  Eigensolver = DivideAndConquer {}
  Dispersion = {}
  ManyBodyDispersion = {}
  ThirdOrder = No
  ThirdOrderFull = No
}
Options = {
  WriteResultsTag = Yes
  WriteEigenvectors = No
  WriteAutotestTag = No
  WriteDetailedXML = No
  WriteDetailedOut = Yes
  WriteBandOut = Yes
  AtomResolvedEnergies = No
  RandomSeed = 0
  WriteHS = No
  WriteRealHS = No
  WriteCPA = No
  MinimiseMemoryUsage = No
  ShowFoldedCoords = No
}
ParserOptions = {
  IgnoreUnprocessedNodes = Yes
  ParserVersion = 4
  WriteHSDInput = Yes
  WriteXMLInput = No
  StopAfterParsing = No
}
Analysis = {
  ProjectStates = {}
}
Parallel = {
  RowBlockSize = 32
  ColumnBlockSize = 32
  Groups = 1
}
