Geometry = GenFormat {
61  S
H    Si
1      1     11.582409075835647      8.906309322142173      2.861931711395688
2      1      7.718508045882461      8.917930368849040      2.861259247486378
3      1     15.446310105788838      8.917930368849031      2.861259247486380
4      1      9.660522672401900      5.577504422577177      2.861931704475178
5      1      5.791204537917817      5.561949772975050      2.861407557836226
6      1     13.504295479269409      5.577504422577179      2.861931704475180
7      1      7.712392852791186      2.234353940465613      2.861407546699756
8      1      3.870016223044479      2.234353940465590      2.861407546699758
9      1     11.582409075835635      2.225457518195746      2.861259248360396
10     2     11.582409075835647      8.916142663730767      4.364249352331518
11     2      7.721606050557098      8.916142663730767      4.364249352331518
12     2     15.443212101114197      8.916142663730765      4.364249352331518
13     2      9.652007563196372      5.572589164831729      4.364249352331518
14     2      5.791204537917823      5.572589164831729      4.364249352331518
15     2     13.512810588474922      5.572589164831728      4.364249352331518
16     2      7.721606050557098      2.229035665932691      4.364249352331518
17     2      3.860803025278549      2.229035665932691      4.364249352331518
18     2     11.582409075835647      2.229035665932690      4.364249352331518
19     2      9.652007563196372      7.801624830764421      5.152332469775356
20     2      5.791204537917823      7.801624830764420      5.152332469775356
21     2     13.512810588474922      7.801624830764420      5.152332469775356
22     2      7.721606050557098      4.458071331865383      5.152332469775356
23     2      3.860803025278549      4.458071331865383      5.152332469775356
24     2     11.582409075835647      4.458071331865382      5.152332469775356
25     2      5.791204537917824      1.114517832966344      5.152332469775356
26     2      1.930401512639275      1.114517832966344      5.152332469775356
27     2      9.652007563196374      1.114517832966343      5.152332469775356
28     2      9.779837598027243      7.759775038950429      7.489483042232185
29     2      5.893608265602393      7.819702171963673      7.566517506393455
30     2     13.825922879671518      7.716459187172933      7.535995055912239
31     2      7.593853056955472      4.371592619602902      7.506526872610418
32     2      3.815493109381481      4.400008658812512      7.517681015482035
33     2     11.730647132075310      4.425990916109747      7.510367052171782
34     2      5.550021463978148      1.036621042535854      7.560312497540410
35     2      1.986074156899751      1.033581289787621      7.587961621586201
36     2      9.920486165980289      1.256226877690631      7.508406471821781
37     2     11.803081082253984      6.693435829819468      8.254617322620197
38     2      7.879096026571073      6.603692665483327      8.227642199691127
39     2      4.131496335180914      6.550242785135553      8.543508952506224
40     2      9.633975704048943      3.504894228390996      8.370909020186330
41     2      5.720609329351094      3.227880359833107      8.581501319187828
42     2      1.978863393132142      3.253692575938716      8.531095470136036
43     2      8.060802648292663     -0.034103056908957      8.248082235994238
44     2      3.808278959388711     -0.173320643538324      8.643185821882003
45     2      0.068390352471691     -0.021609281552009      8.559984629702456
46     2     12.368849986555679     10.058950613061867     11.502816873491437
47     2     10.055951962910498      5.985796359479947      9.704221088824941
48     2      2.970495950629930      8.611426531978065     11.191897077441640
49     2     10.914574281235678      6.258700389865636     11.910152472543619
50     2      7.459385331622379      5.783852054427135     10.582432229386416
51     2      1.858510995750793      6.423095868887164     11.571049108804873
52     2      8.635821492412651      3.495120406424551     10.552873750079220
53     2      6.530004983330094      2.425239236242231     10.890342571601114
54     2     13.217985634276220     10.323416253542449      8.848938659584340
55     2     14.159893313477948     10.031681465901501     13.125503712368666
56     2      5.070276401013948      5.005149355811063     10.346431064077835
57     2      8.773340097079153      4.875033266642073     12.492705287023613
58     2      3.510226449338461      4.547254636405272     12.046512305663512
59     2     11.273623201954070      8.421469321395717     12.884374481162565
60     2      6.126918731657928      4.119965540772817     12.593837673730102
61     2     13.526452185100446      7.739767428910861     13.542032188003649
0.000000000000000      0.000000000000000      0.000000000000000
11.582409075835649      0.000000000000000      0.000000000000000
5.791204537917825     10.030660496697113      0.000000000000000
0.000000000000000      0.000000000000000     37.821246761657591
}
Driver = ConjugateGradient {
  MaxForceComponent = 1E-4
  MaxSteps = 0
  LatticeOpt = No
  MovedAtoms = "1:-1"
  OutputPrefix = "geo_end"
  AppendGeometries = No
  ConvergentForcesOnly = Yes
  Constraints = {}
}
Hamiltonian = DFTB {
  EwaldParameter = 0.5
  Filling = Fermi {
    Temperature = 0.01
    IndependentKFilling = No
  }
  KPointsAndWeights = {
-0.33333333 -0.33333333  0.         1.0
-0.33333333  0.          0.         1.0
-0.33333333  0.33333333  0.         1.0
0.         -0.33333333  0.         1.0
0. 0. 0. 1.0
0.         0.33333333 0.         1.0
0.33333333 -0.33333333  0.         1.0
0.33333333 0.         0.         1.0
0.33333333 0.33333333 0.         1.0
  }
  MaxAngularMomentum = {
    H = s
    Si = p
  }
  SCC = YES
  SlaterKosterFiles = Type2FileNames {
    Prefix = /user/panosetti/data/progs/DFTB/parameters/pbc/pbc-0-3/
    Separator = "-"
    Suffix = ".skf"
    LowerCaseTypeName = No
  }
  PolynomialRepulsive = {}
  OldRepulsiveSum = No
  OrbitalResolvedSCC = No
  OldSKInterpolation = No
  Charge = 0.000000000000000E+000
  ReadInitialCharges = No
  InitialCharges = {}
  SCCTolerance = 1.000000000000000E-005
  MaxSCCIterations = 100
  Mixer = Broyden {
    MixingParameter = 0.200000000000000
    CachedIterations = -1
    InverseJacobiWeight = 1.000000000000000E-002
    MinimalWeight = 1.00000000000000
    MaximalWeight = 100000.000000000
    WeightFactor = 1.000000000000000E-002
  }
  ElectricField = {}
  DampXH = No
  SpinPolarisation = {}
  Eigensolver = DivideAndConquer {}
  Dispersion = {}
  ManyBodyDispersion = {}
  ThirdOrder = No
  ThirdOrderFull = No
}
Options = {
  WriteResultsTag = Yes
  WriteEigenvectors = No
  WriteAutotestTag = No
  WriteDetailedXML = No
  WriteDetailedOut = Yes
  WriteBandOut = Yes
  AtomResolvedEnergies = No
  RandomSeed = 0
  WriteHS = No
  WriteRealHS = No
  WriteCPA = No
  MinimiseMemoryUsage = No
  ShowFoldedCoords = No
}
ParserOptions = {
  IgnoreUnprocessedNodes = Yes
  ParserVersion = 4
  WriteHSDInput = Yes
  WriteXMLInput = No
  StopAfterParsing = No
}
Analysis = {
  ProjectStates = {}
}
Parallel = {
  RowBlockSize = 32
  ColumnBlockSize = 32
  Groups = 1
}
