Geometry = GenFormat {
347  S
H    Si
1      1     34.736926990906859     22.282667330084351      2.862052628528004
2      1     30.880672838701098     22.301309081979429      2.861778433007017
3      1     27.025621149077534     22.282452523657810      2.862321358222732
4      1     23.170569383800039     22.301309034621813      2.861778516026478
5      1     19.314315352280854     22.282667412580722      2.862052662527684
6      1     15.452206827231535     22.285162692266052      2.860375662550839
7      1     38.599035693125309     22.285162707090269      2.860375680175517
8      1     32.816814031997552     18.946795370501732      2.862124629194623
9      1     28.951060021263324     18.948438031817261      2.862322300474453
10     1     25.100182334712326     18.948438046996738      2.862322398923121
11     1     21.234428236474422     18.946795467058941      2.862124758491359
12     1     17.385422044581830     18.941726247196616      2.862052523584728
13     1     13.512810624934399     18.909437467395989      2.861391678433279
14     1     36.665820361933243     18.941726139809912      2.862052514022061
15     1     30.885359526090912     15.598132902764178      2.862322267671634
16     1     27.025621203797726     15.603248688726673      2.861645925914254
17     1     23.165882792988427     15.598132970688761      2.862322457719462
18     1     19.297404883054373     15.592791337179507      2.861778364661462
19     1     15.447004785098475     15.586081243985026      2.862547720452740
20     1     11.578616394254512     15.586081210573356      2.862547774534089
21     1     34.753837406727882     15.592791198064628      2.861778337244276
22     1     28.959920727115115     12.263174994752989      2.862322358836851
23     1     25.091321682201265     12.263174936403109      2.862322450243407
24     1     21.241260988207284     12.263646792529039      2.862321307029952
25     1     17.368751579740852     12.262241467536857      2.862637040233270
26     1     13.512810486306231     12.253356774649165      2.861549499595148
27     1      9.656869595451630     12.262241423800845      2.862637248233523
28     1     32.809981323707987     12.263646784747889      2.862321311244958
29     1     27.025621217947656      8.916155209702568      2.862124771437306
30     1     23.152456671978594      8.915645858398928      2.861778437075978
31     1     19.303789228369727      8.910658007357343      2.862637113568391
32     1     15.445444766470924      8.917430789430243      2.862552932859821
33     1     11.580176322369422      8.917430794169265      2.862553150936800
34     1      7.721831951974551      8.910657987201093      2.862637404928487
35     1     30.898785663442240      8.915645893322790      2.861778493581542
36     1     25.096728060836490      5.585352957493036      2.862052657997044
37     1     21.221445663120978      5.584456692774076      2.862547914963756
38     1     17.368124271380438      5.575757471680829      2.861549616806508
39     1     13.512810548475761      5.570010066755708      2.862553141251400
40     1      9.657496710667141      5.575757477101151      2.861549869846447
41     1      5.804175512947455      5.584456610301423      2.862548080285440
42     1     28.954514478520078      5.585352915023726      2.862052682799650
43     1     23.132458919813740      2.247717919380844      2.861391867420119
44     1     19.287251325259057      2.234333750488026      2.862547955040383
45     1     15.447848192443180      2.231972210361516      2.862637286429260
46     1     11.577772929894202      2.231972203148849      2.862637369252928
47     1      7.738369752272914      2.234333772240247      2.862548065737815
48     1      3.893162326545727      2.247717917447384      2.861391890434919
49     1     27.025621247269843      2.239421148117992      2.860375708586595
50     2     34.747227227506940     22.290356659326918      4.364249352331518
51     2     30.886424202228390     22.290356659326918      4.364249352331518
52     2     27.025621176949841     22.290356659326918      4.364249352331518
53     2     23.164818151671291     22.290356659326918      4.364249352331518
54     2     19.304015126392741     22.290356659326914      4.364249352331518
55     2     15.443212101114192     22.290356659326914      4.364249352331518
56     2     38.608030252785490     22.290356659326914      4.364249352331518
57     2     32.816825714867669     18.946803160427880      4.364249352331518
58     2     28.956022689589116     18.946803160427880      4.364249352331518
59     2     25.095219664310566     18.946803160427880      4.364249352331518
60     2     21.234416639032016     18.946803160427876      4.364249352331518
61     2     17.373613613753466     18.946803160427876      4.364249352331518
62     2     13.512810588474917     18.946803160427876      4.364249352331518
63     2     36.677628740146218     18.946803160427876      4.364249352331518
64     2     30.886424202228390     15.603249661528842      4.364249352331518
65     2     27.025621176949841     15.603249661528842      4.364249352331518
66     2     23.164818151671291     15.603249661528841      4.364249352331518
67     2     19.304015126392741     15.603249661528841      4.364249352331518
68     2     15.443212101114192     15.603249661528839      4.364249352331518
69     2     11.582409075835642     15.603249661528839      4.364249352331518
70     2     34.747227227506940     15.603249661528839      4.364249352331518
71     2     28.956022689589116     12.259696162629805      4.364249352331518
72     2     25.095219664310569     12.259696162629803      4.364249352331518
73     2     21.234416639032020     12.259696162629803      4.364249352331518
74     2     17.373613613753466     12.259696162629803      4.364249352331518
75     2     13.512810588474917     12.259696162629803      4.364249352331518
76     2      9.652007563196367     12.259696162629801      4.364249352331518
77     2     32.816825714867662     12.259696162629801      4.364249352331518
78     2     27.025621176949841      8.916142663730765      4.364249352331518
79     2     23.164818151671291      8.916142663730765      4.364249352331518
80     2     19.304015126392741      8.916142663730765      4.364249352331518
81     2     15.443212101114192      8.916142663730765      4.364249352331518
82     2     11.582409075835642      8.916142663730763      4.364249352331518
83     2      7.721606050557092      8.916142663730763      4.364249352331518
84     2     30.886424202228390      8.916142663730763      4.364249352331518
85     2     25.095219664310569      5.572589164831729      4.364249352331518
86     2     21.234416639032020      5.572589164831729      4.364249352331518
87     2     17.373613613753470      5.572589164831726      4.364249352331518
88     2     13.512810588474920      5.572589164831726      4.364249352331518
89     2      9.652007563196371      5.572589164831726      4.364249352331518
90     2      5.791204537917821      5.572589164831726      4.364249352331518
91     2     28.956022689589112      5.572589164831726      4.364249352331518
92     2     23.164818151671291      2.229035665932692      4.364249352331518
93     2     19.304015126392741      2.229035665932688      4.364249352331518
94     2     15.443212101114195      2.229035665932688      4.364249352331518
95     2     11.582409075835645      2.229035665932688      4.364249352331518
96     2      7.721606050557096      2.229035665932688      4.364249352331518
97     2      3.860803025278546      2.229035665932688      4.364249352331518
98     2     27.025621176949841      2.229035665932688      4.364249352331518
99     2     32.816825714867669     21.175838826360572      5.152332469775356
100    2     28.956022689589116     21.175838826360572      5.152332469775356
101    2     25.095219664310566     21.175838826360572      5.152332469775356
102    2     21.234416639032016     21.175838826360572      5.152332469775356
103    2     17.373613613753466     21.175838826360568      5.152332469775356
104    2     13.512810588474917     21.175838826360568      5.152332469775356
105    2     36.677628740146218     21.175838826360568      5.152332469775356
106    2     30.886424202228390     17.832285327461534      5.152332469775356
107    2     27.025621176949841     17.832285327461534      5.152332469775356
108    2     23.164818151671291     17.832285327461534      5.152332469775356
109    2     19.304015126392741     17.832285327461534      5.152332469775356
110    2     15.443212101114192     17.832285327461530      5.152332469775356
111    2     11.582409075835642     17.832285327461530      5.152332469775356
112    2     34.747227227506940     17.832285327461530      5.152332469775356
113    2     28.956022689589116     14.488731828562495      5.152332469775356
114    2     25.095219664310569     14.488731828562495      5.152332469775356
115    2     21.234416639032020     14.488731828562493      5.152332469775356
116    2     17.373613613753466     14.488731828562493      5.152332469775356
117    2     13.512810588474917     14.488731828562493      5.152332469775356
118    2      9.652007563196367     14.488731828562493      5.152332469775356
119    2     32.816825714867662     14.488731828562493      5.152332469775356
120    2     27.025621176949841     11.145178329663457      5.152332469775356
121    2     23.164818151671291     11.145178329663457      5.152332469775356
122    2     19.304015126392741     11.145178329663457      5.152332469775356
123    2     15.443212101114192     11.145178329663457      5.152332469775356
124    2     11.582409075835642     11.145178329663455      5.152332469775356
125    2      7.721606050557092     11.145178329663455      5.152332469775356
126    2     30.886424202228390     11.145178329663455      5.152332469775356
127    2     25.095219664310569      7.801624830764421      5.152332469775356
128    2     21.234416639032020      7.801624830764421      5.152332469775356
129    2     17.373613613753466      7.801624830764421      5.152332469775356
130    2     13.512810588474917      7.801624830764421      5.152332469775356
131    2      9.652007563196371      7.801624830764419      5.152332469775356
132    2      5.791204537917821      7.801624830764419      5.152332469775356
133    2     28.956022689589119      7.801624830764419      5.152332469775356
134    2     23.164818151671291      4.458071331865384      5.152332469775356
135    2     19.304015126392741      4.458071331865380      5.152332469775356
136    2     15.443212101114195      4.458071331865380      5.152332469775356
137    2     11.582409075835645      4.458071331865380      5.152332469775356
138    2      7.721606050557096      4.458071331865380      5.152332469775356
139    2      3.860803025278546      4.458071331865380      5.152332469775356
140    2     27.025621176949841      4.458071331865380      5.152332469775356
141    2     21.234416639032020      1.114517832966346      5.152332469775356
142    2     17.373613613753470      1.114517832966342      5.152332469775356
143    2     13.512810588474920      1.114517832966342      5.152332469775356
144    2      9.652007563196371      1.114517832966342      5.152332469775356
145    2      5.791204537917825      1.114517832966342      5.152332469775356
146    2      1.930401512639271      1.114517832966342      5.152332469775356
147    2     25.095219664310569      1.114517832966342      5.152332469775356
148    2     32.816825714867669     21.175838826360572      7.516581822106875
149    2     28.956022689589116     21.175838826360572      7.516581822106875
150    2     25.095219664310566     21.175838826360572      7.516581822106875
151    2     21.234416639032016     21.175838826360572      7.516581822106875
152    2     17.373613613753466     21.175838826360568      7.516581822106875
153    2     13.512810588474917     21.175838826360568      7.516581822106875
154    2     36.677628740146218     21.175838826360568      7.516581822106875
155    2     30.886424202228390     17.832285327461534      7.516581822106875
156    2     27.025621176949841     17.832285327461534      7.516581822106875
157    2     23.164818151671291     17.832285327461534      7.516581822106875
158    2     19.304015126392741     17.832285327461534      7.516581822106875
159    2     15.443212101114192     17.832285327461530      7.516581822106875
160    2     11.582409075835642     17.832285327461530      7.516581822106875
161    2     34.747227227506940     17.832285327461530      7.516581822106875
162    2     28.956022689589116     14.488731828562495      7.516581822106875
163    2     25.095219664310569     14.488731828562495      7.516581822106875
164    2     21.234416639032020     14.488731828562493      7.516581822106875
165    2     17.373613613753466     14.488731828562493      7.516581822106875
166    2     13.512810588474917     14.488731828562493      7.516581822106875
167    2      9.652007563196367     14.488731828562493      7.516581822106875
168    2     32.816825714867662     14.488731828562493      7.516581822106875
169    2     27.025621176949841     11.145178329663457      7.516581822106875
170    2     23.164818151671291     11.145178329663457      7.516581822106875
171    2     19.304015126392741     11.145178329663457      7.516581822106875
172    2     15.443212101114192     11.145178329663457      7.516581822106875
173    2     11.582409075835642     11.145178329663455      7.516581822106875
174    2      7.721606050557092     11.145178329663455      7.516581822106875
175    2     30.886424202228390     11.145178329663455      7.516581822106875
176    2     25.095219664310569      7.801624830764421      7.516581822106875
177    2     21.234416639032020      7.801624830764421      7.516581822106875
178    2     17.373613613753466      7.801624830764421      7.516581822106875
179    2     13.512810588474917      7.801624830764421      7.516581822106875
180    2      9.652007563196371      7.801624830764419      7.516581822106875
181    2      5.791204537917821      7.801624830764419      7.516581822106875
182    2     28.956022689589119      7.801624830764419      7.516581822106875
183    2     23.164818151671291      4.458071331865384      7.516581822106875
184    2     19.304015126392741      4.458071331865380      7.516581822106875
185    2     15.443212101114195      4.458071331865380      7.516581822106875
186    2     11.582409075835645      4.458071331865380      7.516581822106875
187    2      7.721606050557096      4.458071331865380      7.516581822106875
188    2      3.860803025278546      4.458071331865380      7.516581822106875
189    2     27.025621176949841      4.458071331865380      7.516581822106875
190    2     21.234416639032020      1.114517832966346      7.516581822106875
191    2     17.373613613753470      1.114517832966342      7.516581822106875
192    2     13.512810588474920      1.114517832966342      7.516581822106875
193    2      9.652007563196371      1.114517832966342      7.516581822106875
194    2      5.791204537917825      1.114517832966342      7.516581822106875
195    2      1.930401512639271      1.114517832966342      7.516581822106875
196    2     25.095219664310569      1.114517832966342      7.516581822106875
197    2     34.747111955852823     20.061255838772048      8.071962081187676
198    2     30.889186426677274     20.062634991529897      8.395521739247394
199    2     27.025621157605848     20.060712368494073      8.043643784143683
200    2     23.162055948915313     20.062634959236522      8.395520646734880
201    2     19.304130441153546     20.061255914637787      8.071957470998962
202    2     15.443128744317072     20.040235082590407      8.345985351825446
203    2     11.582492237248397     20.040234946359515      8.345985555333597
204    2     32.819343341630585     16.719505238099618      8.395519920587212
205    2     28.968531647811258     16.724991574897192      8.396786415356987
206    2     25.082710610349999     16.724991371569917      8.396786251831601
207    2     21.231899355854726     16.719505389787166      8.395519919451090
208    2     17.356368085266755     16.747847372980637      8.379137679486350
209    2     13.512810490349054     16.720517958885456      8.051558964630900
210    2      9.669253072739316     16.747846869746468      8.379136993830793
211    2     30.885895842359567     13.374520386336851      8.043635967999002
212    2     27.025620952800182     13.359771648096824      8.396785584804135
213    2     23.165346623227144     13.374520474045692      8.043640866050396
214    2     19.318102176795431     13.348480534121675      8.369621849020437
215    2     15.455053860497696     13.382825585058153      8.394569723382252
216    2     11.570566590456805     13.382824976232840      8.394568418467243
217    2      7.707519484012577     13.348479619754114      8.369619627891083
218    2     28.955778249707382     10.027614231588490      8.395518857360639
219    2     25.095464391437350     10.027614419623054      8.395519946575950
220    2     21.219172518099512     10.055729414969003      8.369623057775682
221    2     17.374439710218226     10.031138795874723      8.032769807142172
222    2     13.512809761367507     10.027651552702164      8.394937041555856
223    2      9.651181295263118     10.031138747350283      8.032762571934230
224    2      5.806449448855060     10.055728972864738      8.369619346171941
225    2     27.025621264950665      6.687241597502475      8.071959391212902
226    2     23.182244029138264      6.657133943509026      8.379139463907906
227    2     19.317392566558201      6.693058680789644      8.394572897487693
228    2     15.440604581431327      6.688613685199338      8.394939032830171
229    2     11.585015430284807      6.688613968629846      8.394936601446844
230    2      7.708228827796833      6.693059274819404      8.394568269897347
231    2      3.843378002486412      6.657134492159996      8.379136204236289
232    2     25.076915167362216      3.354026688271746      8.345986755595113
233    2     21.236797178589491      3.342180503567077      8.051569770065163
234    2     17.375149152976576      3.328994719446497      8.394573290267026
235    2     13.512810460919679      3.342601101040022      8.032769932420019
236    2      9.650471756164054      3.328994937303182      8.394569965933201
237    2      5.788823988500045      3.342180611457667      8.051559365927920
238    2      1.948706349821520      3.354026858796187      8.345985421791328
239    2     23.146597321120407      0.010617928057651      8.345987238575358
240    2     19.338686857000781     -0.000102220936404      8.379140797144665
241    2     15.413880758499362      0.000669990612440      8.369624092292776
242    2     11.611739881941546      0.000670020047865      8.369622603779435
243    2      7.686934775823318     -0.000101990545162      8.379138228073101
244    2      3.879023957911408      0.010618238067802      8.345985703918888
245    2     -0.000000047160108      0.000002230888010      8.570384091435793
246    2     34.704936895675544     20.036902364040149     10.346541649031249
247    2     30.914031753259135     20.056540329498848     10.836847451032806
248    2     27.025620052686314     20.013269471314601     10.306626722862516
249    2     23.137209479942555     20.056542401338447     10.836845004669307
250    2     19.346305900150032     20.036904986355299     10.346538796641990
251    2     15.770442441336174     19.514683204336944     10.670908559599361
252    2     11.255179780129632     19.514680954025248     10.670909093509938
253    2     32.826491929397264     16.744066129339267     10.836843572940005
254    2     29.072649782198773     16.785103631429667     10.839945234982574
255    2     24.978591146570714     16.785103752437188     10.839944798206536
256    2     21.224752100199336     16.744068676399415     10.836843032328012
257    2     17.006235304332467     17.377775764306648     10.699688941407789
258    2     13.512810408671466     16.669512382838604     10.315991506415779
259    2     10.019387023414842     17.377773591536307     10.699688318462451
260    2     30.844814057373107     13.398238644410055     10.306623205998203
261    2     27.025620569823573     13.239545937927385     10.839944197911793
262    2     23.206430310422547     13.398241106154398     10.306623255522961
263    2     19.666867880191980     12.768941351992151     10.693893315861235
264    2     15.429879774038422     13.393735621475162     10.827573933859160
265    2     11.595736000732121     13.393733693464092     10.827571033631411
266    2      7.358755337927132     12.768936284595997     10.693888488080914
267    2     28.938082452732043     10.009145414316190     10.836842257492513
268    2     25.113164181754421     10.009147600985619     10.836844161805997
269    2     20.891657439948386     10.647541462494134     10.693894163146727
270    2     17.338505027675247     10.010393266444245     10.287232513979658
271    2     13.512805772965978     10.166760779531458     10.825838897419622
272    2      9.687113303678105     10.010391272366316     10.287226572380542
273    2      6.133966940461806     10.647537275521685     10.693888229350891
274    2     27.025623668614507      6.735944939734948     10.346540552201970
275    2     23.552715202514772      6.038947027785639     10.699692456370183
276    2     19.314256485591393      6.665802552256118     10.827579893427652
277    2     15.561073412423028      6.619059944431108     10.825843091789805
278    2     11.464540805369984      6.619061487302378     10.825837784607229
279    2      7.711364149610139      6.665804950816275     10.827570330303978
280    2      3.472911442640254      6.038947441082847     10.699687205019526
281    2     24.785431384904882      3.900263427850842     10.670911946863940
282    2     21.192628338083910      3.367683555662488     10.315995475309796
283    2     17.397184996546574      3.345338357188460     10.827580998198135
284    2     13.512807441234180      3.384095989697313     10.287235006441669
285    2      9.628433615377482      3.345340408641297     10.827574333872258
286    2      5.832994750118946      3.367684868654722     10.315990255833666
287    2      2.240195340771571      3.900264286780414     10.670908334388374
288    2     22.527802711287812     -0.010068464553747     10.670913857631330
289    2     20.059287493748784     -0.011844712976897     10.699695000301555
290    2     14.737600201682826     -0.011599771780765     10.693896966217757
291    2     12.288015586873323     -0.011599202523798     10.693895863365912
292    2      6.966335465629358     -0.011842266859866     10.699690375377406
293    2      4.497820554159579     -0.010066117747324     10.670909712436508
294    2     32.978640350309988     21.180330743166376     11.523107462215984
295    2     28.803324352204363     21.143554787090462     11.461207130718014
296    2     25.247915329494887     21.143555185328811     11.461205073696998
297    2     21.072602109553817     21.180334211122009     11.523101734628654
298    2     17.512636644552419     21.095574340818064     11.500910087831802
299    2     36.538607287755340     21.095570605898907     11.500914425380559
300    2     13.512811107946408     18.788670927018021     11.455468402615235
301    2     30.951689119722559     17.869961010346142     11.918951509979028
302    2     27.025620109070513     17.929348398598396     11.437702557272507
303    2     23.099553217867321     17.869964347055816     11.918948614393898
304    2     19.219215609805484     17.970171323798215     11.523102240251673
305    2     15.370464129764613     15.752156652050921     11.482212138630544
306    2     11.655156312855180     15.752153755384583     11.482210217474581
307    2     34.832028716806654     17.970167565657459     11.523105172512263
308    2     29.040085688519724     14.440196839276386     11.437696721416744
309    2     25.011158279936360     14.440199003999755     11.437699261481873
310    2     21.338722037639343     14.372635139832695     11.461202506751313
311    2     17.433779213081710     12.113374474853725     11.435670389298634
312    2     13.512806024431196     12.335778397990211     11.907260623792641
313    2      9.591840367867473     12.113369085174819     11.435660074363613
314    2     32.712524360425384     14.372629962338461     11.461199181031999
315    2     27.025624060528823     11.069819520045854     11.918949521575705
316    2     23.116426728484448     11.293560303340893     11.461204932387433
317    2     19.207375577157705      9.041416361114221     11.435672544688041
318    2     15.532177160904872      8.967514396225797     11.413012440481994
319    2     11.493435159963681      8.967513286855807     11.413003619099037
320    2      7.818246141756316      9.041413905270776     11.435659351727733
321    2     30.934821139746614     11.293556874824791     11.461199547983330
322    2     25.172234812805346      7.659246805122241     11.523104985130045
323    2     21.327000152388084      5.435138779586916     11.482221664043664
324    2     17.439497889033714      5.534554394747127     11.907268535982070
325    2     13.512805200053844      5.469861136910738     11.413012320514149
326    2      9.586117317943907      5.534556221120948     11.907258079047143
327    2      5.698625405490108      5.435139249965975     11.482208993087832
328    2     28.879014840480906      7.659245333101485     11.523102191473695
329    2     23.027872450831627      2.308105480178567     11.455475140869433
330    2     19.469347011799663      2.217588042335844     11.482221380340771
331    2     15.286401194520327      2.250099049354465     11.435672455224978
332    2     11.739212663812200      2.250099440807948     11.435669577390366
333    2      7.556273885852237      2.217590791547250     11.482210628111474
334    2      3.997753302954912      2.308107523357621     11.455466845652653
335    2     27.025625200936535      4.618602332388867     11.500912951846662
336    2      5.772387306158156      3.332693581961959     12.879417754361715
337    2     13.512805299324501      3.354207102612635     12.812041783358316
338    2     21.253237734565399      3.332689778196995     12.879431588932162
339    2      9.661227986192923     10.025336342725165     12.812025622599801
340    2     17.364388134669330     10.025339534142219     12.812043298653215
341    2     13.512809226954658     16.739494718707604     12.879419867659083
342    2     27.025626311058442      6.668796166150141     12.932091340227863
343    2     23.178747486806863     13.382260070908417     12.833049513643056
344    2     30.872498424681044     13.382255611055758     12.833045697710455
345    2     19.288152583895751     20.070480589359388     12.932089510280896
346    2     27.025619095091386     20.045236319082246     12.833054641465067
347    2     34.763091532822386     20.070475679661854     12.932095854457511
0.000000000000000      0.000000000000000      0.000000000000000
27.025621176949848      0.000000000000000      0.000000000000000
13.512810588474924     23.404874492293263      0.000000000000000
0.000000000000000      0.000000000000000     37.821246761657591
}
Driver = ConjugateGradient {
  MaxForceComponent = 1E-4
  MaxSteps = 0
  LatticeOpt = No
  MovedAtoms = "1:-1"
  OutputPrefix = "geo_end"
  AppendGeometries = No
  ConvergentForcesOnly = Yes
  Constraints = {}
}
Hamiltonian = DFTB {
  Charge = 0
  EwaldParameter = 0.1
  Filling = Fermi {
    Temperature = 0.001
    IndependentKFilling = No
  }
  KPointsAndWeights = {
-0.33333333 -0.33333333  0.         1.0
-0.33333333  0.          0.         1.0
-0.33333333  0.33333333  0.         1.0
0.         -0.33333333  0.         1.0
0.  0.  0. 1.0
0.          0.33333333  0.         1.0
0.33333333 -0.33333333  0.         1.0
0.33333333  0.          0.         1.0
0.33333333  0.33333333  0.         1.0
  }
  MaxAngularMomentum = {
    H = "s"
    Si = "p"
  }
  MaxSCCIterations = 100
  SCC = YES
  SlaterKosterFiles = Type2FileNames {
    Prefix = /user/panosetti/data/progs/DFTB/parameters/pbc/pbc-0-3/
    Separator = "-"
    Suffix = ".skf"
    LowerCaseTypeName = No
  }
  PolynomialRepulsive = {}
  OldRepulsiveSum = No
  OrbitalResolvedSCC = No
  OldSKInterpolation = No
  ReadInitialCharges = No
  InitialCharges = {}
  SCCTolerance = 1.000000000000000E-005
  Mixer = Broyden {
    MixingParameter = 0.200000000000000
    CachedIterations = -1
    InverseJacobiWeight = 1.000000000000000E-002
    MinimalWeight = 1.00000000000000
    MaximalWeight = 100000.000000000
    WeightFactor = 1.000000000000000E-002
  }
  ElectricField = {}
  DampXH = No
  SpinPolarisation = {}
  Eigensolver = DivideAndConquer {}
  Dispersion = {}
  ThirdOrder = No
  ThirdOrderFull = No
}
Options = {
  WriteResultsTag = Yes
  WriteEigenvectors = No
  WriteAutotestTag = No
  WriteDetailedXML = No
  WriteDetailedOut = Yes
  WriteBandOut = Yes
  AtomResolvedEnergies = No
  RandomSeed = 0
  WriteHS = No
  WriteRealHS = No
  MinimiseMemoryUsage = No
  ShowFoldedCoords = No
}
ParserOptions = {
  ParserVersion = 4
  WriteHSDInput = Yes
  WriteXMLInput = No
  StopAfterParsing = No
  IgnoreUnprocessedNodes = No
}
Analysis = {
  ProjectStates = {}
}
Parallel = {
  RowBlockSize = 32
  ColumnBlockSize = 32
  Groups = 1
}
