Geometry = GenFormat {
347  S
H    Si
1      1     34.742486691054864     22.283705201225608      2.861981542957074
2      1     30.884476321217925     22.298531453345820      2.861699808471771
3      1     27.025621174190082     22.283599786622304      2.862166851708077
4      1     23.166766026902980     22.298531450163573      2.861699863888794
5      1     19.308755661789153     22.283705184080134      2.861981617741323
6      1     15.444676761458823     22.289511155062307      2.860951100533536
7      1     38.606565596157978     22.289511158442071      2.860951068318636
8      1     32.818288785281126     18.947648808680594      2.862115561084193
9      1     28.953317820803647     18.947926479471239      2.862227085780146
10     1     25.097924530688140     18.947926482328874      2.862227115784818
11     1     21.232953558328575     18.947648812740855      2.862115633354180
12     1     17.381747944173135     18.946024516247153      2.861981795156590
13     1     13.512810590341637     18.930957588550243      2.861336265850182
14     1     36.669494418343916     18.946024509686225      2.861981735582504
15     1     30.886044173649239     15.600345577038983      2.862226680842357
16     1     27.025621165104461     15.603250238550652      2.861490286155263
17     1     23.165198174575345     15.600345578642381      2.862226721860349
18     1     19.297909602693061     15.597475132320723      2.861699426773169
19     1     15.445850286390245     15.593066488430566      2.862457831629489
20     1     11.579770895756763     15.593066487264659      2.862457809304134
21     1     34.753332761736829     15.597475128550242      2.861699375716049
22     1     28.958351062570298     12.261477611426651      2.862226603166268
23     1     25.092891291298251     12.261477609177881      2.862226614182650
24     1     21.240267647174779     12.263074466401944      2.862166050701609
25     1     17.370019354648363     12.263702396813697      2.862524041073317
26     1     13.512810595945917     12.257488125700590      2.861369635869578
27     1      9.655601826497943     12.263702390021248      2.862524023411392
28     1     32.810974695378427     12.263074469704387      2.862166027087220
29     1     27.025621175330322      8.914453254835225      2.862115128995218
30     1     23.156759264158154      8.913742398904892      2.861699275017759
31     1     19.305684798527594      8.911024587140520      2.862523799796375
32     1     15.444950296031640      8.917146372156173      2.862405065597147
33     1     11.580670878370038      8.917146375060092      2.862405068478050
34     1      7.719936382478421      8.911024584231136      2.862523805761801
35     1     30.894483092670310      8.913742388204787      2.861699279358073
36     1     25.098608936066167      5.580016261778963      2.861981203960520
37     1     21.226914354541709      5.579961485069527      2.862457588549788
38     1     17.371705394164838      5.573688686767845      2.861369294333383
39     1     13.512810589710696      5.570578942703911      2.862405200060583
40     1      9.653915790191927      5.573688682426827      2.861369320474577
41     1      5.798706824873184      5.579961492099910      2.862457623420448
42     1     28.952633412485838      5.580016265358112      2.861981219156623
43     1     23.151092255271742      2.236956599339529      2.861336109753784
44     1     19.293878824378947      2.231847110239564      2.862457831525517
45     1     15.448481107276706      2.230146288195346      2.862524399351238
46     1     11.577140065413886      2.230146286149692      2.862524422990018
47     1      7.731742361462086      2.231847103822919      2.862457888735767
48     1      3.874528917437286      2.236956594777312      2.861336156462408
49     1     27.025621175866863      2.230723615406251      2.860951046278684
50     2     34.747227227506947     22.290356659326921      4.364249352331518
51     2     30.886424202228397     22.290356659326921      4.364249352331518
52     2     27.025621176949848     22.290356659326921      4.364249352331518
53     2     23.164818151671298     22.290356659326921      4.364249352331518
54     2     19.304015126392748     22.290356659326918      4.364249352331518
55     2     15.443212101114199     22.290356659326918      4.364249352331518
56     2     38.608030252785497     22.290356659326918      4.364249352331518
57     2     32.816825714867676     18.946803160427883      4.364249352331518
58     2     28.956022689589123     18.946803160427883      4.364249352331518
59     2     25.095219664310573     18.946803160427883      4.364249352331518
60     2     21.234416639032023     18.946803160427883      4.364249352331518
61     2     17.373613613753474     18.946803160427880      4.364249352331518
62     2     13.512810588474924     18.946803160427880      4.364249352331518
63     2     36.677628740146218     18.946803160427880      4.364249352331518
64     2     30.886424202228397     15.603249661528846      4.364249352331518
65     2     27.025621176949848     15.603249661528846      4.364249352331518
66     2     23.164818151671298     15.603249661528844      4.364249352331518
67     2     19.304015126392748     15.603249661528844      4.364249352331518
68     2     15.443212101114199     15.603249661528842      4.364249352331518
69     2     11.582409075835649     15.603249661528842      4.364249352331518
70     2     34.747227227506947     15.603249661528842      4.364249352331518
71     2     28.956022689589123     12.259696162629808      4.364249352331518
72     2     25.095219664310576     12.259696162629806      4.364249352331518
73     2     21.234416639032027     12.259696162629806      4.364249352331518
74     2     17.373613613753474     12.259696162629806      4.364249352331518
75     2     13.512810588474924     12.259696162629806      4.364249352331518
76     2      9.652007563196374     12.259696162629805      4.364249352331518
77     2     32.816825714867676     12.259696162629805      4.364249352331518
78     2     27.025621176949848      8.916142663730769      4.364249352331518
79     2     23.164818151671298      8.916142663730769      4.364249352331518
80     2     19.304015126392748      8.916142663730769      4.364249352331518
81     2     15.443212101114199      8.916142663730769      4.364249352331518
82     2     11.582409075835649      8.916142663730767      4.364249352331518
83     2      7.721606050557099      8.916142663730767      4.364249352331518
84     2     30.886424202228397      8.916142663730767      4.364249352331518
85     2     25.095219664310576      5.572589164831733      4.364249352331518
86     2     21.234416639032027      5.572589164831733      4.364249352331518
87     2     17.373613613753477      5.572589164831729      4.364249352331518
88     2     13.512810588474927      5.572589164831729      4.364249352331518
89     2      9.652007563196378      5.572589164831729      4.364249352331518
90     2      5.791204537917828      5.572589164831729      4.364249352331518
91     2     28.956022689589119      5.572589164831729      4.364249352331518
92     2     23.164818151671298      2.229035665932695      4.364249352331518
93     2     19.304015126392748      2.229035665932692      4.364249352331518
94     2     15.443212101114202      2.229035665932692      4.364249352331518
95     2     11.582409075835653      2.229035665932692      4.364249352331518
96     2      7.721606050557103      2.229035665932692      4.364249352331518
97     2      3.860803025278553      2.229035665932692      4.364249352331518
98     2     27.025621176949848      2.229035665932692      4.364249352331518
99     2     32.816825714867676     21.175838826360575      5.152332469775356
100    2     28.956022689589123     21.175838826360575      5.152332469775356
101    2     25.095219664310573     21.175838826360575      5.152332469775356
102    2     21.234416639032023     21.175838826360575      5.152332469775356
103    2     17.373613613753474     21.175838826360572      5.152332469775356
104    2     13.512810588474924     21.175838826360572      5.152332469775356
105    2     36.677628740146218     21.175838826360572      5.152332469775356
106    2     30.886424202228397     17.832285327461538      5.152332469775356
107    2     27.025621176949848     17.832285327461538      5.152332469775356
108    2     23.164818151671298     17.832285327461534      5.152332469775356
109    2     19.304015126392748     17.832285327461534      5.152332469775356
110    2     15.443212101114199     17.832285327461534      5.152332469775356
111    2     11.582409075835649     17.832285327461534      5.152332469775356
112    2     34.747227227506947     17.832285327461534      5.152332469775356
113    2     28.956022689589123     14.488731828562498      5.152332469775356
114    2     25.095219664310576     14.488731828562498      5.152332469775356
115    2     21.234416639032027     14.488731828562496      5.152332469775356
116    2     17.373613613753474     14.488731828562496      5.152332469775356
117    2     13.512810588474924     14.488731828562496      5.152332469775356
118    2      9.652007563196374     14.488731828562496      5.152332469775356
119    2     32.816825714867676     14.488731828562496      5.152332469775356
120    2     27.025621176949848     11.145178329663461      5.152332469775356
121    2     23.164818151671298     11.145178329663461      5.152332469775356
122    2     19.304015126392748     11.145178329663461      5.152332469775356
123    2     15.443212101114199     11.145178329663461      5.152332469775356
124    2     11.582409075835649     11.145178329663459      5.152332469775356
125    2      7.721606050557099     11.145178329663459      5.152332469775356
126    2     30.886424202228397     11.145178329663459      5.152332469775356
127    2     25.095219664310576      7.801624830764425      5.152332469775356
128    2     21.234416639032027      7.801624830764425      5.152332469775356
129    2     17.373613613753474      7.801624830764425      5.152332469775356
130    2     13.512810588474924      7.801624830764425      5.152332469775356
131    2      9.652007563196378      7.801624830764423      5.152332469775356
132    2      5.791204537917828      7.801624830764423      5.152332469775356
133    2     28.956022689589126      7.801624830764423      5.152332469775356
134    2     23.164818151671298      4.458071331865387      5.152332469775356
135    2     19.304015126392748      4.458071331865384      5.152332469775356
136    2     15.443212101114202      4.458071331865384      5.152332469775356
137    2     11.582409075835653      4.458071331865384      5.152332469775356
138    2      7.721606050557103      4.458071331865384      5.152332469775356
139    2      3.860803025278553      4.458071331865384      5.152332469775356
140    2     27.025621176949848      4.458071331865384      5.152332469775356
141    2     21.234416639032027      1.114517832966349      5.152332469775356
142    2     17.373613613753477      1.114517832966346      5.152332469775356
143    2     13.512810588474927      1.114517832966346      5.152332469775356
144    2      9.652007563196378      1.114517832966346      5.152332469775356
145    2      5.791204537917832      1.114517832966346      5.152332469775356
146    2      1.930401512639278      1.114517832966346      5.152332469775356
147    2     25.095219664310576      1.114517832966346      5.152332469775356
148    2     32.816825714867676     21.175838826360575      7.516581822106875
149    2     28.956022689589123     21.175838826360575      7.516581822106875
150    2     25.095219664310573     21.175838826360575      7.516581822106875
151    2     21.234416639032023     21.175838826360575      7.516581822106875
152    2     17.373613613753474     21.175838826360572      7.516581822106875
153    2     13.512810588474924     21.175838826360572      7.516581822106875
154    2     36.677628740146218     21.175838826360572      7.516581822106875
155    2     30.886424202228397     17.832285327461538      7.516581822106875
156    2     27.025621176949848     17.832285327461538      7.516581822106875
157    2     23.164818151671298     17.832285327461534      7.516581822106875
158    2     19.304015126392748     17.832285327461534      7.516581822106875
159    2     15.443212101114199     17.832285327461534      7.516581822106875
160    2     11.582409075835649     17.832285327461534      7.516581822106875
161    2     34.747227227506947     17.832285327461534      7.516581822106875
162    2     28.956022689589123     14.488731828562498      7.516581822106875
163    2     25.095219664310576     14.488731828562498      7.516581822106875
164    2     21.234416639032027     14.488731828562496      7.516581822106875
165    2     17.373613613753474     14.488731828562496      7.516581822106875
166    2     13.512810588474924     14.488731828562496      7.516581822106875
167    2      9.652007563196374     14.488731828562496      7.516581822106875
168    2     32.816825714867676     14.488731828562496      7.516581822106875
169    2     27.025621176949848     11.145178329663461      7.516581822106875
170    2     23.164818151671298     11.145178329663461      7.516581822106875
171    2     19.304015126392748     11.145178329663461      7.516581822106875
172    2     15.443212101114199     11.145178329663461      7.516581822106875
173    2     11.582409075835649     11.145178329663459      7.516581822106875
174    2      7.721606050557099     11.145178329663459      7.516581822106875
175    2     30.886424202228397     11.145178329663459      7.516581822106875
176    2     25.095219664310576      7.801624830764425      7.516581822106875
177    2     21.234416639032027      7.801624830764425      7.516581822106875
178    2     17.373613613753474      7.801624830764425      7.516581822106875
179    2     13.512810588474924      7.801624830764425      7.516581822106875
180    2      9.652007563196378      7.801624830764423      7.516581822106875
181    2      5.791204537917828      7.801624830764423      7.516581822106875
182    2     28.956022689589126      7.801624830764423      7.516581822106875
183    2     23.164818151671298      4.458071331865387      7.516581822106875
184    2     19.304015126392748      4.458071331865384      7.516581822106875
185    2     15.443212101114202      4.458071331865384      7.516581822106875
186    2     11.582409075835653      4.458071331865384      7.516581822106875
187    2      7.721606050557103      4.458071331865384      7.516581822106875
188    2      3.860803025278553      4.458071331865384      7.516581822106875
189    2     27.025621176949848      4.458071331865384      7.516581822106875
190    2     21.234416639032027      1.114517832966349      7.516581822106875
191    2     17.373613613753477      1.114517832966346      7.516581822106875
192    2     13.512810588474927      1.114517832966346      7.516581822106875
193    2      9.652007563196378      1.114517832966346      7.516581822106875
194    2      5.791204537917832      1.114517832966346      7.516581822106875
195    2      1.930401512639278      1.114517832966346      7.516581822106875
196    2     25.095219664310576      1.114517832966346      7.516581822106875
197    2     34.746502523730349     20.060903136902621      8.069985451967339
198    2     30.888860366931866     20.062683195221993      8.395294927900308
199    2     27.025621153006949     20.060069790533102      8.049494950157660
200    2     23.162381992167116     20.062683182892634      8.395294980239230
201    2     19.304739857188004     20.060903124354947      8.069985624089469
202    2     15.445394606223740     20.040403327686906      8.351823475251818
203    2     11.580226557681119     20.040403336781420      8.351823482214179
204    2     32.819216072777536     16.719198783338392      8.395304472492352
205    2     28.967905102665028     16.724634656436674      8.397318025500249
206    2     25.083337247888974     16.724634663553342      8.397318099657523
207    2     21.232026294433204     16.719198799055956      8.395304578760340
208    2     17.356224749847375     16.748755067841003      8.380010591195813
209    2     13.512810602027423     16.719847510957209      8.052944175182652
210    2      9.669396388159209     16.748755034546271      8.380010444310132
211    2     30.885337217692761     13.374840783541670      8.049491035427513
212    2     27.025621181390896     13.360494884973107      8.397284260257464
213    2     23.165905128908356     13.374840807023363      8.049491511944380
214    2     19.318562476316320     13.348502175602757      8.371357055257038
215    2     15.455212435609697     13.383013684343259      8.395008011823474
216    2     11.570408739126643     13.383013669781635      8.395007897429368
217    2      7.707058719446294     13.348502180525200      8.371356881219688
218    2     28.955978758424532     10.027870293895987      8.395272007434629
219    2     25.095263607817824     10.027870286831012      8.395272061108326
220    2     21.219411109916663     10.056112623453306      8.371364339735628
221    2     17.374523592734892     10.031191274167391      8.038213491837061
222    2     13.512810587363115     10.027801756506060      8.395653190715434
223    2      9.651097588055821     10.031191260965809      8.038213155002442
224    2      5.806210059079536     10.056112627257402      8.371364222852026
225    2     27.025621179579751      6.687948012684787      8.070046765031835
226    2     23.182958601920394      6.656562482793136      8.380020382296738
227    2     19.317627522605378      6.693119149678236      8.395055441152834
228    2     15.440731114614243      6.688540878598833      8.395687655035305
229    2     11.584890062691890      6.688540880226761      8.395687612641654
230    2      7.707993660488675      6.693119159075313      8.395055363951546
231    2      3.842662591538243      6.656562487628469      8.380020278991195
232    2     25.078191688609113      3.355904219253990      8.351835550772607
233    2     21.236217570646854      3.342516060550752      8.052889716602806
234    2     17.375221949151321      3.328763121850022      8.395045772767945
235    2     13.512810578871282      3.342500445398072      8.038224779685640
236    2      9.650399225219052      3.328763117047501      8.395045809057331
237    2      5.789403613793739      3.342516049220363      8.052889810318655
238    2      1.947429525838208      3.355904229424308      8.351835579023309
239    2     23.145613351553617      0.008576415129188      8.351842049876577
240    2     19.339541426196934     -0.000431737778521      8.380012853510324
241    2     15.413674987861878      0.000265287522570      8.371322638379722
242    2     11.611946202080638      0.000265264882835      8.371322694921544
243    2      7.686079714943161     -0.000431708923854      8.380012896098521
244    2      3.880007854246108      0.008576458336213      8.351842070842400
245    2     -0.000000004631395      0.000006673166486      8.504169033446221
246    2     34.707694584418036     20.038515283263539     10.343635945895354
247    2     30.904446435625029     20.062916912837817     10.837850610514746
248    2     27.025621413990660     20.016228276163655     10.314101783442073
249    2     23.146796122591219     20.062916956038290     10.837850791570279
250    2     19.343547509303349     20.038515462949587     10.343635552506180
251    2     15.768755230428123     19.513681772270424     10.679954975119927
252    2     11.256865574815244     19.513681735905269     10.679954847463607
253    2     32.827198005732185     16.732585992962704     10.837863545306785
254    2     29.064193334758951     16.780250198625133     10.841624019865034
255    2     24.987049285502394     16.780250196051750     10.841624228944218
256    2     21.224044391616360     16.732585995125081     10.837863856149680
257    2     17.005412646501401     17.375962524967353     10.703117399387715
258    2     13.512810294668569     16.673506178437126     10.317140840675453
259    2     10.020208080387320     17.375962489196301     10.703117171245921
260    2     30.847408551207764     13.396858222296592     10.314096534626575
261    2     27.025621307422718     13.249288896588194     10.841572150222600
262    2     23.203833928020245     13.396858022804386     10.314096767788360
263    2     19.665997519483927     12.768243047084018     10.696603281690422
264    2     15.438198410658066     13.390597170637630     10.828641477958733
265    2     11.587422557254774     13.390597150374726     10.828641288494692
266    2      7.359623671223971     12.768243148572900     10.696602980210704
267    2     28.948381824128354     10.014249845154056     10.837812604135257
268    2     25.102860693971969     10.014249726975491     10.837812733778257
269    2     20.890577061667550     10.647128893218833     10.696610936310771
270    2     17.339378916992651     10.010784138545525     10.294131006981603
271    2     13.512810560834668     10.158313068530918     10.827782911395170
272    2      9.686242244371977     10.010784280966353     10.294130827100600
273    2      6.135044108495806     10.647129036607298     10.696610670196158
274    2     27.025621203721773      6.732831316501802     10.343702810172060
275    2     23.550736813234842      6.039163315035674     10.703136612203330
276    2     19.315633975790604      6.674649942921100     10.828718350697768
277    2     15.553724854983928      6.623290666412271     10.827848106156196
278    2     11.471896392273441      6.623290739925400     10.827848023967810
279    2      7.709987297058703      6.674650208162614     10.828718195913021
280    2      3.474884440186369      6.039163514536125     10.703136480367375
281    2     24.783723504619903      3.899324390314351     10.679972661986417
282    2     21.196133230752768      3.365671441181219     10.317085602836183
283    2     17.390250672352842      3.339723112930072     10.828698918423665
284    2     13.512810703444401      3.383135894580470     10.294144093669443
285    2      9.635370658986490      3.339723233611792     10.828698951755186
286    2      5.829488093352299      3.365671864860043     10.317085610937005
287    2      2.241897895408544      3.899324563520718     10.679972628622266
288    2     22.527786748589726     -0.008085113980576     10.679994550369264
289    2     20.058135159279104     -0.010218812589340     10.703135175704338
290    2     14.737421687495273     -0.010476376022456     10.696567856837978
291    2     12.288199704714817     -0.010476414932263     10.696567891263150
292    2      6.967485972648979     -0.010218475696875     10.703135270519500
293    2      4.497834472976001     -0.008084704311979     10.679994643941928
294    2     32.976620969560827     21.178627497746760     11.517205972086915
295    2     28.797391990579499     21.146826303535825     11.474886985678527
296    2     25.253850851864737     21.146826213790380     11.474887113243643
297    2     21.074621254768740     21.178627576733621     11.517205922664555
298    2     17.514380207431003     21.094563607990121     11.505185360465902
299    2     27.025621399774469     17.934940788375954     11.451109591231868
300    2     23.101184577960858     17.869052598290853     11.897751374064903
301    2     19.221711316211554     17.969278021567845     11.517177880400549
302    2     13.512810298397470     18.784448191718255     11.468373541521357
303    2     36.536862009810172     21.094563382610406     11.505185370078037
304    2     30.950057985940724     17.869052568344330     11.897751194364570
305    2     25.006351479185771     14.437424450101807     11.451055985562629
306    2     21.338871272716865     14.365879706678955     11.475010617961848
307    2     15.367988242646057     15.749642494818504     11.482840260141680
308    2     11.657632269170019     15.749642429535585     11.482840052636174
309    2     34.829530811147492     17.969277807583030     11.517177752654156
310    2     29.044891117935244     14.437424566390202     11.451055632626442
311    2     27.025621308451157     11.071694552582480     11.897698314179561
312    2     23.110662675955467     11.297083878757189     11.474795371924188
313    2     17.437058025795515     12.109331337176620     11.447931800984225
314    2     13.512810436587753     12.334324599329804     11.888976516090086
315    2      9.588563005298104     12.109331398290152     11.447931427389952
316    2     32.712371244293038     14.365879864679529     11.475010008972113
317    2     25.172688091832217      7.661866305635815     11.517288545954504
318    2     19.205507403654625      9.046338076984844     11.448230800034288
319    2     15.535637056733066      8.969533023187902     11.425553399667349
320    2     11.489983974170180      8.969533112334419     11.425553121095005
321    2      7.820113754398799      9.046338319071989     11.448230328110085
322    2     30.940579790045735     11.297084125991345     11.474794893424162
323    2     27.025621303828803      4.620658678367253     11.505172218500276
324    2     21.323542528791215      5.434281384134866     11.482728676080074
325    2     17.438202465566906      5.535290821797355     11.889049264339423
326    2     13.512810591490521      5.465836833457974     11.425601853787057
327    2      9.587418754809772      5.535291021414923     11.889049084024446
328    2      5.702078738664453      5.434281799989989     11.482728556075429
329    2     28.878554339025687      7.661866456729660     11.517288370872084
330    2     23.024217590401051      2.310251283498527     11.468452983621241
331    2     19.468394951963749      2.221026907782244     11.482750715520696
332    2     15.281233058176836      2.249241733302534     11.448074125690205
333    2     11.744388297504813      2.249241752044778     11.448074025793840
334    2      7.557226241536006      2.221027319613609     11.482750801971584
335    2      4.001403832263897      2.310251759686079     11.468453111418714
336    2      5.779914655879465      3.337081210220247     12.886353400229789
337    2     13.512810618194059      3.354835861735704     12.836459630420874
338    2     21.245706653810537      3.337080616349736     12.886353488519557
339    2      9.661935591222834     10.025162221103052     12.836445580742890
340    2     17.363685440347254     10.025162100484469     12.836446091306062
341    2     13.512810139267703     16.730911030015751     12.886432997061275
342    2     27.025621310970092      6.676224685422620     12.924351726393930
343    2     23.178576600196980     13.382015110316798     12.859500062571835
344    2     30.872665998722542     13.382015374006810     12.859499390882442
345    2     19.294601785388327     20.066731113318351     12.924255039448028
346    2     27.025621526763935     20.045591563498885     12.859509579834054
347    2     34.756640332393658     20.066730821507637     12.924255147080533
0.000000000000000      0.000000000000000      0.000000000000000
27.025621176949848      0.000000000000000      0.000000000000000
13.512810588474924     23.404874492293263      0.000000000000000
0.000000000000000      0.000000000000000     37.821246761657591
}
Driver = ConjugateGradient {
  MaxForceComponent = 1E-4
  MaxSteps = 0
  LatticeOpt = No
  MovedAtoms = "1:-1"
  OutputPrefix = "geo_end"
  AppendGeometries = No
  ConvergentForcesOnly = Yes
  Constraints = {}
}
Hamiltonian = DFTB {
  Charge = 0
  EwaldParameter = 0.1
  Filling = Fermi {
    Temperature = 0.0036
    IndependentKFilling = No
  }
  KPointsAndWeights = {
-0.33333333 -0.33333333  0.         1.0
-0.33333333  0.          0.         1.0
-0.33333333  0.33333333  0.         1.0
0.         -0.33333333  0.         1.0
0.  0.  0. 1.0
0.          0.33333333  0.         1.0
0.33333333 -0.33333333  0.         1.0
0.33333333  0.          0.         1.0
0.33333333  0.33333333  0.         1.0
  }
  MaxAngularMomentum = {
    H = "s"
    Si = "p"
  }
  MaxSCCIterations = 100
  SCC = YES
  SlaterKosterFiles = Type2FileNames {
    Prefix = /user/panosetti/data/progs/DFTB/parameters/pbc/pbc-0-3/
    Separator = "-"
    Suffix = ".skf"
    LowerCaseTypeName = No
  }
  PolynomialRepulsive = {}
  OldRepulsiveSum = No
  OrbitalResolvedSCC = No
  OldSKInterpolation = No
  ReadInitialCharges = No
  InitialCharges = {}
  SCCTolerance = 1.000000000000000E-005
  Mixer = Broyden {
    MixingParameter = 0.200000000000000
    CachedIterations = -1
    InverseJacobiWeight = 1.000000000000000E-002
    MinimalWeight = 1.00000000000000
    MaximalWeight = 100000.000000000
    WeightFactor = 1.000000000000000E-002
  }
  ElectricField = {}
  DampXH = No
  SpinPolarisation = {}
  Eigensolver = DivideAndConquer {}
  Dispersion = {}
  ThirdOrder = No
  ThirdOrderFull = No
}
Options = {
  WriteResultsTag = Yes
  WriteEigenvectors = No
  WriteAutotestTag = No
  WriteDetailedXML = No
  WriteDetailedOut = Yes
  WriteBandOut = Yes
  AtomResolvedEnergies = No
  RandomSeed = 0
  WriteHS = No
  WriteRealHS = No
  MinimiseMemoryUsage = No
  ShowFoldedCoords = No
}
ParserOptions = {
  ParserVersion = 4
  WriteHSDInput = Yes
  WriteXMLInput = No
  StopAfterParsing = No
  IgnoreUnprocessedNodes = No
}
Analysis = {
  ProjectStates = {}
}
Parallel = {
  RowBlockSize = 32
  ColumnBlockSize = 32
  Groups = 1
}
