Geometry = GenFormat {
61  S
H    Si
1      1     11.582409075835647      8.906309322142173      2.861931711395688
2      1      7.718508045882461      8.917930368849040      2.861259247486378
3      1     15.446310105788838      8.917930368849031      2.861259247486380
4      1      9.660522672401900      5.577504422577177      2.861931704475178
5      1      5.791204537917817      5.561949772975050      2.861407557836226
6      1     13.504295479269409      5.577504422577179      2.861931704475180
7      1      7.712392852791186      2.234353940465613      2.861407546699756
8      1      3.870016223044479      2.234353940465590      2.861407546699758
9      1     11.582409075835635      2.225457518195746      2.861259248360396
10     2     11.582409075835647      8.916142663730767      4.364249352331518
11     2      7.721606050557098      8.916142663730767      4.364249352331518
12     2     15.443212101114197      8.916142663730765      4.364249352331518
13     2      9.652007563196372      5.572589164831729      4.364249352331518
14     2      5.791204537917823      5.572589164831729      4.364249352331518
15     2     13.512810588474922      5.572589164831728      4.364249352331518
16     2      7.721606050557098      2.229035665932691      4.364249352331518
17     2      3.860803025278549      2.229035665932691      4.364249352331518
18     2     11.582409075835647      2.229035665932690      4.364249352331518
19     2      9.652007563196372      7.801624830764421      5.152332469775356
20     2      5.791204537917823      7.801624830764420      5.152332469775356
21     2     13.512810588474922      7.801624830764420      5.152332469775356
22     2      7.721606050557098      4.458071331865383      5.152332469775356
23     2      3.860803025278549      4.458071331865383      5.152332469775356
24     2     11.582409075835647      4.458071331865382      5.152332469775356
25     2      5.791204537917824      1.114517832966344      5.152332469775356
26     2      1.930401512639275      1.114517832966344      5.152332469775356
27     2      9.652007563196374      1.114517832966343      5.152332469775356
28     2      9.676140479726989      8.037612047254123      7.510259209208074
29     2      5.822215609173202      7.930318936066873      7.502252863222976
30     2     13.495872840564926      7.938189387115558      7.528527734978067
31     2      7.859568001325100      4.568282029440005      7.492419618410731
32     2      3.887983725532957      4.612085721417591      7.490696764838275
33     2     11.662079850596037      4.563693893132912      7.569650019907805
34     2      5.873168167777596      1.267553799001364      7.484322083200855
35     2      1.987791173351280      1.250590922741780      7.641614853089542
36     2      9.809352613698731      1.154586091323029      7.604610185966757
37     2     11.544724089033892      6.834412085962114      8.285939079625985
38     2      7.774068203532426      6.833201041267023      8.266775868734308
39     2      3.855976396744159      6.830251566255845      8.311300163841791
40     2      9.751688743885628      3.434833125234591      8.413882931702169
41     2      5.870029800584937      3.530279583514830      8.147846137030911
42     2      2.032360971520634      3.537164954240958      8.500807077109338
43     2      7.772688497387933      0.162646236746587      8.358943965862245
44     2      3.990226749103295      0.221477153220102      8.436536321933998
45     2      0.148523759132787      0.012743641056957      8.611144786839628
46     2      9.440218750965757      8.091099487792560     11.697534663074917
47     2      7.179702454926921      7.632956026921668     10.519407142076036
48     2      3.395195129114751      6.393429873661984     10.632499845324334
49     2      9.639702646550642      3.951640827212471     10.756327999448629
50     2      5.907883411310701      3.775809315477158     10.416855497255035
51     2      2.248701187611047      4.305624930869177     10.783642502778902
52     2      7.213970350971167      0.366781121073528     10.722310221473409
53     2      4.635966619089162      0.280161826085073     10.805521160130299
54     2     11.359597976832612      7.519975240324042     10.442007764320577
55     2     13.473795764322270      8.125876050259043     11.631676735226144
56     2      5.687769024697243      5.895918879138697     11.441025250007527
57     2      7.653331930892211      2.817923376807453     11.619316300067199
58     2      4.141792959735671      2.779313118577948     11.720522056733722
59     2     11.630151242486162      5.047932809657343     11.370699607210550
60     2      6.039552080684346      4.054951822827058     13.063454766163581
61     2     11.548532023504178      6.965994759393233     12.881913148242239
0.000000000000000      0.000000000000000      0.000000000000000
11.582409075835649      0.000000000000000      0.000000000000000
5.791204537917825     10.030660496697113      0.000000000000000
0.000000000000000      0.000000000000000     37.821246761657591
}
Driver = ConjugateGradient {
  MaxForceComponent = 1E-4
  MaxSteps = 0
  LatticeOpt = No
  MovedAtoms = "1:-1"
  OutputPrefix = "geo_end"
  AppendGeometries = No
  ConvergentForcesOnly = Yes
  Constraints = {}
}
Hamiltonian = DFTB {
  EwaldParameter = 0.5
  Filling = Fermi {
    Temperature = 0.01
    IndependentKFilling = No
  }
  KPointsAndWeights = {
-0.33333333 -0.33333333  0.         1.0
-0.33333333  0.          0.         1.0
-0.33333333  0.33333333  0.         1.0
0.         -0.33333333  0.         1.0
0. 0. 0. 1.0
0.         0.33333333 0.         1.0
0.33333333 -0.33333333  0.         1.0
0.33333333 0.         0.         1.0
0.33333333 0.33333333 0.         1.0
  }
  MaxAngularMomentum = {
    H = s
    Si = p
  }
  SCC = YES
  SlaterKosterFiles = Type2FileNames {
    Prefix = /user/panosetti/data/progs/DFTB/parameters/pbc/pbc-0-3/
    Separator = "-"
    Suffix = ".skf"
    LowerCaseTypeName = No
  }
  PolynomialRepulsive = {}
  OldRepulsiveSum = No
  OrbitalResolvedSCC = No
  OldSKInterpolation = No
  Charge = 0.000000000000000E+000
  ReadInitialCharges = No
  InitialCharges = {}
  SCCTolerance = 1.000000000000000E-005
  MaxSCCIterations = 100
  Mixer = Broyden {
    MixingParameter = 0.200000000000000
    CachedIterations = -1
    InverseJacobiWeight = 1.000000000000000E-002
    MinimalWeight = 1.00000000000000
    MaximalWeight = 100000.000000000
    WeightFactor = 1.000000000000000E-002
  }
  ElectricField = {}
  DampXH = No
  SpinPolarisation = {}
  Eigensolver = DivideAndConquer {}
  Dispersion = {}
  ManyBodyDispersion = {}
  ThirdOrder = No
  ThirdOrderFull = No
}
Options = {
  WriteResultsTag = Yes
  WriteEigenvectors = No
  WriteAutotestTag = No
  WriteDetailedXML = No
  WriteDetailedOut = Yes
  WriteBandOut = Yes
  AtomResolvedEnergies = No
  RandomSeed = 0
  WriteHS = No
  WriteRealHS = No
  WriteCPA = No
  MinimiseMemoryUsage = No
  ShowFoldedCoords = No
}
ParserOptions = {
  IgnoreUnprocessedNodes = Yes
  ParserVersion = 4
  WriteHSDInput = Yes
  WriteXMLInput = No
  StopAfterParsing = No
}
Analysis = {
  ProjectStates = {}
}
Parallel = {
  RowBlockSize = 32
  ColumnBlockSize = 32
  Groups = 1
}
