Geometry = GenFormat {
61  S
H    Si
1      1     11.582409075835647      8.906309322142173      2.861931711395688
2      1      7.718508045882461      8.917930368849040      2.861259247486378
3      1     15.446310105788838      8.917930368849031      2.861259247486380
4      1      9.660522672401900      5.577504422577177      2.861931704475178
5      1      5.791204537917817      5.561949772975050      2.861407557836226
6      1     13.504295479269409      5.577504422577179      2.861931704475180
7      1      7.712392852791186      2.234353940465613      2.861407546699756
8      1      3.870016223044479      2.234353940465590      2.861407546699758
9      1     11.582409075835635      2.225457518195746      2.861259248360396
10     2     11.582409075835647      8.916142663730767      4.364249352331518
11     2      7.721606050557098      8.916142663730767      4.364249352331518
12     2     15.443212101114197      8.916142663730765      4.364249352331518
13     2      9.652007563196372      5.572589164831729      4.364249352331518
14     2      5.791204537917823      5.572589164831729      4.364249352331518
15     2     13.512810588474922      5.572589164831728      4.364249352331518
16     2      7.721606050557098      2.229035665932691      4.364249352331518
17     2      3.860803025278549      2.229035665932691      4.364249352331518
18     2     11.582409075835647      2.229035665932690      4.364249352331518
19     2      9.652007563196372      7.801624830764421      5.152332469775356
20     2      5.791204537917823      7.801624830764420      5.152332469775356
21     2     13.512810588474922      7.801624830764420      5.152332469775356
22     2      7.721606050557098      4.458071331865383      5.152332469775356
23     2      3.860803025278549      4.458071331865383      5.152332469775356
24     2     11.582409075835647      4.458071331865382      5.152332469775356
25     2      5.791204537917824      1.114517832966344      5.152332469775356
26     2      1.930401512639275      1.114517832966344      5.152332469775356
27     2      9.652007563196374      1.114517832966343      5.152332469775356
28     2      9.745737718167259      8.057238259402959      7.509911109978570
29     2      5.896367632943546      8.008378279816167      7.536053649527614
30     2     13.651244865765079      7.959152970845150      7.511362595775646
31     2      7.880922187073383      4.627946163994194      7.466223339378056
32     2      3.926263393752567      4.557490087699695      7.450779006909890
33     2     11.697482312009413      4.600196150952938      7.540592475602060
34     2      5.912212493740375      1.199590782987846      7.461578881875430
35     2      1.954086676459304      1.281493452579834      7.623743895378639
36     2      9.798838088116828      1.280876658833443      7.611368958886700
37     2     11.675222235353818      6.879620256229783      8.188130548091328
38     2      7.858214443791791      6.866311751123130      8.258495977386930
39     2      4.002440840869132      6.783347723530730      8.241384941631418
40     2      9.771526934553158      3.576366268351448      8.448075094797113
41     2      5.921813764532602      3.474660451740361      8.058813652269153
42     2      2.057987197931030      3.544897145911344      8.461117629893980
43     2      7.842444223704776      0.190544081087488      8.424689130626613
44     2      3.972493271614129      0.284959279451526      8.404385002279257
45     2      0.082962167174827      0.140514071271819      8.605898028469454
46     2     11.880267301334486      7.336442170538039     10.432088854302956
47     2      8.429057107389884      6.623443845016609     10.553787308351620
48     2      3.835829806030945      6.535151502514328     10.593354751731395
49     2      9.704901218675316      4.501033220650016     10.696141555573666
50     2      6.040750760060647      3.817963553763938     10.345067876244713
51     2      2.588152247407332      4.359389432462249     10.759847593103091
52     2      7.215090022732315      0.880182737018999     10.718109114575212
53     2      4.704166796626401      0.701418723309650     10.727343037462493
54     2      9.912512964093487      8.413943032349179     11.533021279644283
55     2     13.853397739873557      8.570723405474803     10.912745197704217
56     2      6.157448344116430      5.947287550582018     11.306454618366164
57     2      7.918890741810527      3.077046948142699     11.674522711717749
58     2      4.290785051775137      2.906718804417773     11.748228789696119
59     2     11.951125988500944      5.092651334236884     11.654232163732852
60     2      6.146903562663593      4.181791861989108     13.103905075377519
61     2     11.851219024866781      7.292795380888444     12.811201586897136
0.000000000000000      0.000000000000000      0.000000000000000
11.582409075835649      0.000000000000000      0.000000000000000
5.791204537917825     10.030660496697113      0.000000000000000
0.000000000000000      0.000000000000000     37.821246761657591
}
Driver = ConjugateGradient {
  MaxForceComponent = 1E-4
  MaxSteps = 0
  LatticeOpt = No
  MovedAtoms = "1:-1"
  OutputPrefix = "geo_end"
  AppendGeometries = No
  ConvergentForcesOnly = Yes
  Constraints = {}
}
Hamiltonian = DFTB {
  EwaldParameter = 0.5
  Filling = Fermi {
    Temperature = 0.01
    IndependentKFilling = No
  }
  KPointsAndWeights = {
-0.33333333 -0.33333333  0.         1.0
-0.33333333  0.          0.         1.0
-0.33333333  0.33333333  0.         1.0
0.         -0.33333333  0.         1.0
0. 0. 0. 1.0
0.         0.33333333 0.         1.0
0.33333333 -0.33333333  0.         1.0
0.33333333 0.         0.         1.0
0.33333333 0.33333333 0.         1.0
  }
  MaxAngularMomentum = {
    H = s
    Si = p
  }
  SCC = YES
  SlaterKosterFiles = Type2FileNames {
    Prefix = /user/panosetti/data/progs/DFTB/parameters/pbc/pbc-0-3/
    Separator = "-"
    Suffix = ".skf"
    LowerCaseTypeName = No
  }
  PolynomialRepulsive = {}
  OldRepulsiveSum = No
  OrbitalResolvedSCC = No
  OldSKInterpolation = No
  Charge = 0.000000000000000E+000
  ReadInitialCharges = No
  InitialCharges = {}
  SCCTolerance = 1.000000000000000E-005
  MaxSCCIterations = 100
  Mixer = Broyden {
    MixingParameter = 0.200000000000000
    CachedIterations = -1
    InverseJacobiWeight = 1.000000000000000E-002
    MinimalWeight = 1.00000000000000
    MaximalWeight = 100000.000000000
    WeightFactor = 1.000000000000000E-002
  }
  ElectricField = {}
  DampXH = No
  SpinPolarisation = {}
  Eigensolver = DivideAndConquer {}
  Dispersion = {}
  ManyBodyDispersion = {}
  ThirdOrder = No
  ThirdOrderFull = No
}
Options = {
  WriteResultsTag = Yes
  WriteEigenvectors = No
  WriteAutotestTag = No
  WriteDetailedXML = No
  WriteDetailedOut = Yes
  WriteBandOut = Yes
  AtomResolvedEnergies = No
  RandomSeed = 0
  WriteHS = No
  WriteRealHS = No
  WriteCPA = No
  MinimiseMemoryUsage = No
  ShowFoldedCoords = No
}
ParserOptions = {
  IgnoreUnprocessedNodes = Yes
  ParserVersion = 4
  WriteHSDInput = Yes
  WriteXMLInput = No
  StopAfterParsing = No
}
Analysis = {
  ProjectStates = {}
}
Parallel = {
  RowBlockSize = 32
  ColumnBlockSize = 32
  Groups = 1
}
