Geometry = GenFormat {
61  S
H    Si
1      1     11.582409075835647      8.906309322142173      2.861931711395688
2      1      7.718508045882461      8.917930368849040      2.861259247486378
3      1     15.446310105788838      8.917930368849031      2.861259247486380
4      1      9.660522672401900      5.577504422577177      2.861931704475178
5      1      5.791204537917817      5.561949772975050      2.861407557836226
6      1     13.504295479269409      5.577504422577179      2.861931704475180
7      1      7.712392852791186      2.234353940465613      2.861407546699756
8      1      3.870016223044479      2.234353940465590      2.861407546699758
9      1     11.582409075835635      2.225457518195746      2.861259248360396
10     2     11.582409075835647      8.916142663730767      4.364249352331518
11     2      7.721606050557098      8.916142663730767      4.364249352331518
12     2     15.443212101114197      8.916142663730765      4.364249352331518
13     2      9.652007563196372      5.572589164831729      4.364249352331518
14     2      5.791204537917823      5.572589164831729      4.364249352331518
15     2     13.512810588474922      5.572589164831728      4.364249352331518
16     2      7.721606050557098      2.229035665932691      4.364249352331518
17     2      3.860803025278549      2.229035665932691      4.364249352331518
18     2     11.582409075835647      2.229035665932690      4.364249352331518
19     2      9.652007563196372      7.801624830764421      5.152332469775356
20     2      5.791204537917823      7.801624830764420      5.152332469775356
21     2     13.512810588474922      7.801624830764420      5.152332469775356
22     2      7.721606050557098      4.458071331865383      5.152332469775356
23     2      3.860803025278549      4.458071331865383      5.152332469775356
24     2     11.582409075835647      4.458071331865382      5.152332469775356
25     2      5.791204537917824      1.114517832966344      5.152332469775356
26     2      1.930401512639275      1.114517832966344      5.152332469775356
27     2      9.652007563196374      1.114517832966343      5.152332469775356
28     2      9.537840660417714      7.804992769110303      7.473639380857544
29     2      5.673841078688284      7.779726120450318      7.601162133249800
30     2     13.425282732660964      7.799323039272513      7.499610793249889
31     2      7.641942447557012      4.403094802131729      7.481311697051098
32     2      3.707611317683221      4.404941403368161      7.440609219974020
33     2     11.440343837947932      4.347793059021648      7.514105235195777
34     2      5.708732153513572      1.108186280576157      7.515438574957747
35     2      1.804230462196396      1.019517306545876      7.567515402901856
36     2      9.594503956230774      1.038695850206662      7.602171214266292
37     2     11.468390037168867      6.625965503391883      8.069158911521505
38     2      7.657490148560134      6.611343078965465      8.272577977946108
39     2      3.697471451673334      6.585041506018201      8.315936125008552
40     2      9.494253320979432      3.278502856769328      8.450906375037320
41     2      5.660858605108988      3.382585703487186      8.258784622884292
42     2      1.811709511717525      3.272176462267807      8.323214872572493
43     2      7.600274092245195     -0.028618560624374      8.392567573617164
44     2      3.809533047093353     -0.023690559125735      8.356096265587482
45     2     -0.093706762165431     -0.062279173466486      8.590989144620890
46     2     11.415038357041498      6.519428225869474     10.360378843290141
47     2      9.100229846197069      3.688757099250100     10.869210384449694
48     2      3.253437628214284      5.810844728485033     10.551056711680378
49     2      8.562788629101938      6.066976746226324     10.390393023183806
50     2      5.161788164058483      4.123004242395703     10.478073617967764
51     2      1.945985537724825      3.753151240709857     10.672429736894779
52     2      6.963103025914280     -0.144598503842621     10.710678057339756
53     2      4.506271035655735     -0.032954622999228     10.656719709234736
54     2      9.724394990222482      7.769199141437670     11.684585389991996
55     2     13.262227231430980      7.553753791455957     11.516317306039801
56     2      6.935357625310314      4.872015198581509     11.862234674971758
57     2      7.778923705249889      1.796300485869807     12.049204582170004
58     2      3.879082851771332      2.288874345211702     11.477817191533171
59     2     11.347956364029287      4.464717506832125     11.609114196271616
60     2      5.802851229768931      2.956226955676237     12.916234669479334
61     2     11.512680274281523      6.562614326212010     12.995460905610646
0.000000000000000      0.000000000000000      0.000000000000000
11.582409075835649      0.000000000000000      0.000000000000000
5.791204537917825     10.030660496697113      0.000000000000000
0.000000000000000      0.000000000000000     37.821246761657591
}
Driver = ConjugateGradient {
  MaxForceComponent = 1E-4
  MaxSteps = 0
  LatticeOpt = No
  MovedAtoms = "1:-1"
  OutputPrefix = "geo_end"
  AppendGeometries = No
  ConvergentForcesOnly = Yes
  Constraints = {}
}
Hamiltonian = DFTB {
  EwaldParameter = 0.5
  Filling = Fermi {
    Temperature = 0.01
    IndependentKFilling = No
  }
  KPointsAndWeights = {
-0.33333333 -0.33333333  0.         1.0
-0.33333333  0.          0.         1.0
-0.33333333  0.33333333  0.         1.0
0.         -0.33333333  0.         1.0
0. 0. 0. 1.0
0.         0.33333333 0.         1.0
0.33333333 -0.33333333  0.         1.0
0.33333333 0.         0.         1.0
0.33333333 0.33333333 0.         1.0
  }
  MaxAngularMomentum = {
    H = s
    Si = p
  }
  SCC = YES
  SlaterKosterFiles = Type2FileNames {
    Prefix = /user/panosetti/data/progs/DFTB/parameters/pbc/pbc-0-3/
    Separator = "-"
    Suffix = ".skf"
    LowerCaseTypeName = No
  }
  PolynomialRepulsive = {}
  OldRepulsiveSum = No
  OrbitalResolvedSCC = No
  OldSKInterpolation = No
  Charge = 0.000000000000000E+000
  ReadInitialCharges = No
  InitialCharges = {}
  SCCTolerance = 1.000000000000000E-005
  MaxSCCIterations = 100
  Mixer = Broyden {
    MixingParameter = 0.200000000000000
    CachedIterations = -1
    InverseJacobiWeight = 1.000000000000000E-002
    MinimalWeight = 1.00000000000000
    MaximalWeight = 100000.000000000
    WeightFactor = 1.000000000000000E-002
  }
  ElectricField = {}
  DampXH = No
  SpinPolarisation = {}
  Eigensolver = DivideAndConquer {}
  Dispersion = {}
  ManyBodyDispersion = {}
  ThirdOrder = No
  ThirdOrderFull = No
}
Options = {
  WriteResultsTag = Yes
  WriteEigenvectors = No
  WriteAutotestTag = No
  WriteDetailedXML = No
  WriteDetailedOut = Yes
  WriteBandOut = Yes
  AtomResolvedEnergies = No
  RandomSeed = 0
  WriteHS = No
  WriteRealHS = No
  WriteCPA = No
  MinimiseMemoryUsage = No
  ShowFoldedCoords = No
}
ParserOptions = {
  IgnoreUnprocessedNodes = Yes
  ParserVersion = 4
  WriteHSDInput = Yes
  WriteXMLInput = No
  StopAfterParsing = No
}
Analysis = {
  ProjectStates = {}
}
Parallel = {
  RowBlockSize = 32
  ColumnBlockSize = 32
  Groups = 1
}
