Geometry = GenFormat {
61  S
H    Si
1      1     11.582409075835647      8.906309322142173      2.861931711395688
2      1      7.718508045882461      8.917930368849040      2.861259247486378
3      1     15.446310105788838      8.917930368849031      2.861259247486380
4      1      9.660522672401900      5.577504422577177      2.861931704475178
5      1      5.791204537917817      5.561949772975050      2.861407557836226
6      1     13.504295479269409      5.577504422577179      2.861931704475180
7      1      7.712392852791186      2.234353940465613      2.861407546699756
8      1      3.870016223044479      2.234353940465590      2.861407546699758
9      1     11.582409075835635      2.225457518195746      2.861259248360396
10     2     11.582409075835647      8.916142663730767      4.364249352331518
11     2      7.721606050557098      8.916142663730767      4.364249352331518
12     2     15.443212101114197      8.916142663730765      4.364249352331518
13     2      9.652007563196372      5.572589164831729      4.364249352331518
14     2      5.791204537917823      5.572589164831729      4.364249352331518
15     2     13.512810588474922      5.572589164831728      4.364249352331518
16     2      7.721606050557098      2.229035665932691      4.364249352331518
17     2      3.860803025278549      2.229035665932691      4.364249352331518
18     2     11.582409075835647      2.229035665932690      4.364249352331518
19     2      9.652007563196372      7.801624830764421      5.152332469775356
20     2      5.791204537917823      7.801624830764420      5.152332469775356
21     2     13.512810588474922      7.801624830764420      5.152332469775356
22     2      7.721606050557098      4.458071331865383      5.152332469775356
23     2      3.860803025278549      4.458071331865383      5.152332469775356
24     2     11.582409075835647      4.458071331865382      5.152332469775356
25     2      5.791204537917824      1.114517832966344      5.152332469775356
26     2      1.930401512639275      1.114517832966344      5.152332469775356
27     2      9.652007563196374      1.114517832966343      5.152332469775356
28     2      9.610683496939028      7.959175948975102      7.561153697664905
29     2      5.913631212030904      7.949356634130544      7.559665450249994
30     2     13.600985427438568      7.935721516507600      7.449691480348275
31     2      7.837465446793857      4.629734099305037      7.458644978889826
32     2      3.858931530920953      4.604758038298023      7.444966352503338
33     2     11.600107189666051      4.432096798779224      7.640738977275870
34     2      5.864368692730024      1.213412300795459      7.428664219455964
35     2      1.968573759967744      1.255012486863766      7.633948243178930
36     2      9.782898888021942      1.149510720635009      7.486395121555058
37     2     11.613108420534248      6.786040346755417      8.008377068290585
38     2      7.789724140814925      6.749591525686849      8.603936560754970
39     2      3.944974995803778      6.836013344442444      8.217729672786366
40     2      9.566575028873835      3.318819522592890      8.377548013642164
41     2      5.847822731291979      3.503183035485786      7.976500232170416
42     2      2.068488522885142      3.511084519004990      8.498612818184995
43     2      7.797109924512717      0.147213629565002      8.230548884761136
44     2      3.984942722331942      0.215540736659351      8.413962855962273
45     2      0.066850651411961      0.100735822840617      8.556560627283901
46     2     12.030213845131984      7.629125159212435     10.136721584660792
47     2      8.707536155831038      6.738543644927612     10.969622897172673
48     2      3.805039343219747      6.655105807710394     10.566080003720101
49     2      9.765193483788265      4.713329746925644     11.970415871366766
50     2      6.291324420257300      3.873284612300242     10.215063751996675
51     2      2.674488800979023      4.435125506331135     10.682510958670656
52     2      7.465047368136557      0.635061464048900     10.539716678903069
53     2      4.948026101552999      0.692734820263591     10.664139057260597
54     2     10.380937515054448      8.491388205719840     11.643448113881865
55     2     13.808813420217737      8.382792145311221     11.547936975444719
56     2      6.213654495355348      6.172425667246338     11.021588515016829
57     2      8.531830414603837      2.989317053029829     10.582320349665897
58     2      4.463686791308181      2.927544935323075     11.705339372767046
59     2     11.979183794094920      5.423099167228687     11.198843639010358
60     2      6.309884010962209      4.262421037003898     12.625950625911099
61     2     12.058147832700040      7.192685559141394     12.937414111024617
0.000000000000000      0.000000000000000      0.000000000000000
11.582409075835649      0.000000000000000      0.000000000000000
5.791204537917825     10.030660496697113      0.000000000000000
0.000000000000000      0.000000000000000     37.821246761657591
}
Driver = ConjugateGradient {
  MaxForceComponent = 1E-4
  MaxSteps = 0
  LatticeOpt = No
  MovedAtoms = "1:-1"
  OutputPrefix = "geo_end"
  AppendGeometries = No
  ConvergentForcesOnly = Yes
  Constraints = {}
}
Hamiltonian = DFTB {
  EwaldParameter = 0.5
  Filling = Fermi {
    Temperature = 0.01
    IndependentKFilling = No
  }
  KPointsAndWeights = {
-0.33333333 -0.33333333  0.         1.0
-0.33333333  0.          0.         1.0
-0.33333333  0.33333333  0.         1.0
0.         -0.33333333  0.         1.0
0. 0. 0. 1.0
0.         0.33333333 0.         1.0
0.33333333 -0.33333333  0.         1.0
0.33333333 0.         0.         1.0
0.33333333 0.33333333 0.         1.0
  }
  MaxAngularMomentum = {
    H = s
    Si = p
  }
  SCC = YES
  SlaterKosterFiles = Type2FileNames {
    Prefix = /user/panosetti/data/progs/DFTB/parameters/pbc/pbc-0-3/
    Separator = "-"
    Suffix = ".skf"
    LowerCaseTypeName = No
  }
  PolynomialRepulsive = {}
  OldRepulsiveSum = No
  OrbitalResolvedSCC = No
  OldSKInterpolation = No
  Charge = 0.000000000000000E+000
  ReadInitialCharges = No
  InitialCharges = {}
  SCCTolerance = 1.000000000000000E-005
  MaxSCCIterations = 100
  Mixer = Broyden {
    MixingParameter = 0.200000000000000
    CachedIterations = -1
    InverseJacobiWeight = 1.000000000000000E-002
    MinimalWeight = 1.00000000000000
    MaximalWeight = 100000.000000000
    WeightFactor = 1.000000000000000E-002
  }
  ElectricField = {}
  DampXH = No
  SpinPolarisation = {}
  Eigensolver = DivideAndConquer {}
  Dispersion = {}
  ManyBodyDispersion = {}
  ThirdOrder = No
  ThirdOrderFull = No
}
Options = {
  WriteResultsTag = Yes
  WriteEigenvectors = No
  WriteAutotestTag = No
  WriteDetailedXML = No
  WriteDetailedOut = Yes
  WriteBandOut = Yes
  AtomResolvedEnergies = No
  RandomSeed = 0
  WriteHS = No
  WriteRealHS = No
  WriteCPA = No
  MinimiseMemoryUsage = No
  ShowFoldedCoords = No
}
ParserOptions = {
  IgnoreUnprocessedNodes = Yes
  ParserVersion = 4
  WriteHSDInput = Yes
  WriteXMLInput = No
  StopAfterParsing = No
}
Analysis = {
  ProjectStates = {}
}
Parallel = {
  RowBlockSize = 32
  ColumnBlockSize = 32
  Groups = 1
}
