Geometry = GenFormat {
61  S
H    Si
1      1     11.582409075835647      8.906309322142173      2.861931711395688
2      1      7.718508045882461      8.917930368849040      2.861259247486378
3      1     15.446310105788838      8.917930368849031      2.861259247486380
4      1      9.660522672401900      5.577504422577177      2.861931704475178
5      1      5.791204537917817      5.561949772975050      2.861407557836226
6      1     13.504295479269409      5.577504422577179      2.861931704475180
7      1      7.712392852791186      2.234353940465613      2.861407546699756
8      1      3.870016223044479      2.234353940465590      2.861407546699758
9      1     11.582409075835635      2.225457518195746      2.861259248360396
10     2     11.582409075835647      8.916142663730767      4.364249352331518
11     2      7.721606050557098      8.916142663730767      4.364249352331518
12     2     15.443212101114197      8.916142663730765      4.364249352331518
13     2      9.652007563196372      5.572589164831729      4.364249352331518
14     2      5.791204537917823      5.572589164831729      4.364249352331518
15     2     13.512810588474922      5.572589164831728      4.364249352331518
16     2      7.721606050557098      2.229035665932691      4.364249352331518
17     2      3.860803025278549      2.229035665932691      4.364249352331518
18     2     11.582409075835647      2.229035665932690      4.364249352331518
19     2      9.652007563196372      7.801624830764421      5.152332469775356
20     2      5.791204537917823      7.801624830764420      5.152332469775356
21     2     13.512810588474922      7.801624830764420      5.152332469775356
22     2      7.721606050557098      4.458071331865383      5.152332469775356
23     2      3.860803025278549      4.458071331865383      5.152332469775356
24     2     11.582409075835647      4.458071331865382      5.152332469775356
25     2      5.791204537917824      1.114517832966344      5.152332469775356
26     2      1.930401512639275      1.114517832966344      5.152332469775356
27     2      9.652007563196374      1.114517832966343      5.152332469775356
28     2      9.720939173514831      6.883636446181906      7.359362247143641
29     2      5.786448124579532      7.835188391186022      7.587588734951252
30     2     13.699308018162458      7.840479157729380      7.624954598099292
31     2      7.690865374406627      4.360793417290891      7.533451555719313
32     2      3.989052360537636      4.499381094940137      7.464253184176212
33     2     11.138596045159886      4.872702073387018      7.511303789323928
34     2      5.931945404577065      1.133356868475418      7.633700713897742
35     2      1.975583021487891      0.912187271180799      7.547619033008644
36     2      9.580556793720600      1.118228687744079      7.530574180815525
37     2     12.019997742202877      6.702076424058237      8.839097907435667
38     2      7.566107985172657      6.530472007412381      8.489899567978693
39     2      4.046172212375637      6.569632390313642      8.590454077387204
40     2      9.649341759232181      3.322237624695350      8.557967534196463
41     2      5.792584163545390      3.405079076266920      8.498038800114692
42     2      2.098669404486834      3.403294691146774      8.279054497808904
43     2      7.808103787178204     -0.005688942980969      8.678659753253877
44     2      3.984434378935247      0.402279811019617      8.764622649297051
45     2     -0.076574640904454      0.074868006337750      8.411946163025396
46     2      7.865753751850922      2.470013527882198     11.506425197440434
47     2      4.542069183878777      2.486388006382804     12.901320465510546
48     2      1.407304175642640      3.003647467163427      8.781749306519529
49     2      6.633148440871476      0.758245654292947     12.693100106866339
50     2      3.654543646826926      1.531379657168661     10.867693558057461
51     2     -0.356269588024509      1.564424725436767     10.244949490504542
52     2      4.354218187526379     -1.871294554863274      9.310384430207774
53     2     -0.054206197028853     -4.935617546449937     10.257515796223872
54     2      6.707037378005582      5.109690554555204     12.402907729588559
55     2      9.024794966679988      4.332900658449342     10.724666040031654
56     2      1.578052257950993      2.687327500352879     11.225709661839499
57     2      4.323953354014133     -2.287554766035095     11.777212505729880
58     2      2.326659705094487     -3.441602407489901     10.888913413330538
59     2      9.632263621127573      0.924694672424177     11.810529368412169
60     2      4.275674897684754      0.056634405110806     12.635348753856835
61     2      6.820609655013180      2.957970076259087     13.741288698629043
0.000000000000000      0.000000000000000      0.000000000000000
11.582409075835649      0.000000000000000      0.000000000000000
5.791204537917825     10.030660496697113      0.000000000000000
0.000000000000000      0.000000000000000     37.821246761657591
}
Driver = ConjugateGradient {
  MaxForceComponent = 1E-4
  MaxSteps = 0
  LatticeOpt = No
  MovedAtoms = "1:-1"
  OutputPrefix = "geo_end"
  AppendGeometries = No
  ConvergentForcesOnly = Yes
  Constraints = {}
}
Hamiltonian = DFTB {
  EwaldParameter = 0.5
  Filling = Fermi {
    Temperature = 0.01
    IndependentKFilling = No
  }
  KPointsAndWeights = {
-0.33333333 -0.33333333  0.         1.0
-0.33333333  0.          0.         1.0
-0.33333333  0.33333333  0.         1.0
0.         -0.33333333  0.         1.0
0. 0. 0. 1.0
0.         0.33333333 0.         1.0
0.33333333 -0.33333333  0.         1.0
0.33333333 0.         0.         1.0
0.33333333 0.33333333 0.         1.0
  }
  MaxAngularMomentum = {
    H = s
    Si = p
  }
  SCC = YES
  SlaterKosterFiles = Type2FileNames {
    Prefix = /user/panosetti/data/progs/DFTB/parameters/pbc/pbc-0-3/
    Separator = "-"
    Suffix = ".skf"
    LowerCaseTypeName = No
  }
  PolynomialRepulsive = {}
  OldRepulsiveSum = No
  OrbitalResolvedSCC = No
  OldSKInterpolation = No
  Charge = 0.000000000000000E+000
  ReadInitialCharges = No
  InitialCharges = {}
  SCCTolerance = 1.000000000000000E-005
  MaxSCCIterations = 100
  Mixer = Broyden {
    MixingParameter = 0.200000000000000
    CachedIterations = -1
    InverseJacobiWeight = 1.000000000000000E-002
    MinimalWeight = 1.00000000000000
    MaximalWeight = 100000.000000000
    WeightFactor = 1.000000000000000E-002
  }
  ElectricField = {}
  DampXH = No
  SpinPolarisation = {}
  Eigensolver = DivideAndConquer {}
  Dispersion = {}
  ManyBodyDispersion = {}
  ThirdOrder = No
  ThirdOrderFull = No
}
Options = {
  WriteResultsTag = Yes
  WriteEigenvectors = No
  WriteAutotestTag = No
  WriteDetailedXML = No
  WriteDetailedOut = Yes
  WriteBandOut = Yes
  AtomResolvedEnergies = No
  RandomSeed = 0
  WriteHS = No
  WriteRealHS = No
  WriteCPA = No
  MinimiseMemoryUsage = No
  ShowFoldedCoords = No
}
ParserOptions = {
  IgnoreUnprocessedNodes = Yes
  ParserVersion = 4
  WriteHSDInput = Yes
  WriteXMLInput = No
  StopAfterParsing = No
}
Analysis = {
  ProjectStates = {}
}
Parallel = {
  RowBlockSize = 32
  ColumnBlockSize = 32
  Groups = 1
}
