Geometry = GenFormat {
61  S
H    Si
1      1     11.582409075835647      8.906309322142173      2.861931711395688
2      1      7.718508045882461      8.917930368849040      2.861259247486378
3      1     15.446310105788838      8.917930368849031      2.861259247486380
4      1      9.660522672401900      5.577504422577177      2.861931704475178
5      1      5.791204537917817      5.561949772975050      2.861407557836226
6      1     13.504295479269409      5.577504422577179      2.861931704475180
7      1      7.712392852791186      2.234353940465613      2.861407546699756
8      1      3.870016223044479      2.234353940465590      2.861407546699758
9      1     11.582409075835635      2.225457518195746      2.861259248360396
10     2     11.582409075835647      8.916142663730767      4.364249352331518
11     2      7.721606050557098      8.916142663730767      4.364249352331518
12     2     15.443212101114197      8.916142663730765      4.364249352331518
13     2      9.652007563196372      5.572589164831729      4.364249352331518
14     2      5.791204537917823      5.572589164831729      4.364249352331518
15     2     13.512810588474922      5.572589164831728      4.364249352331518
16     2      7.721606050557098      2.229035665932691      4.364249352331518
17     2      3.860803025278549      2.229035665932691      4.364249352331518
18     2     11.582409075835647      2.229035665932690      4.364249352331518
19     2      9.652007563196372      7.801624830764421      5.152332469775356
20     2      5.791204537917823      7.801624830764420      5.152332469775356
21     2     13.512810588474922      7.801624830764420      5.152332469775356
22     2      7.721606050557098      4.458071331865383      5.152332469775356
23     2      3.860803025278549      4.458071331865383      5.152332469775356
24     2     11.582409075835647      4.458071331865382      5.152332469775356
25     2      5.791204537917824      1.114517832966344      5.152332469775356
26     2      1.930401512639275      1.114517832966344      5.152332469775356
27     2      9.652007563196374      1.114517832966343      5.152332469775356
28     2      9.724881184637230      7.921811485995771      7.530996704132179
29     2      5.866142671837552      7.870068067312667      7.506855914202765
30     2     13.562051548130812      7.857156882134412      7.487669716315503
31     2      7.866361609153993      4.485426765048879      7.577588490542045
32     2      3.865785143214918      4.418429521244054      7.517494674909806
33     2     11.615777198482144      4.471877863955171      7.547812262453492
34     2      5.899565299507670      1.101448541145883      7.485186140976245
35     2      1.884730531202769      1.183914315949884      7.565838168592563
36     2      9.727542674625797      1.109453307767184      7.570672634025931
37     2     11.672370086407836      6.733745373227809      8.342704075439979
38     2      7.811410699528594      6.759227211149413      8.311430175082963
39     2      3.923660814110249      6.692983818920645      8.146729900532819
40     2      9.751507811113418      3.294619173754638      8.525101499470228
41     2      5.890157541908556      3.333521037412539      8.245954436887905
42     2      1.922142422531117      3.389685865828480      8.458559428517953
43     2      7.802721767938419     -0.033894897414995      8.556121839658156
44     2      3.895751386720298      0.177561733717648      8.331324939983897
45     2      0.028223293794122      0.000288954756018      8.539183152457476
46     2     10.945265414424597      7.395037099210251     10.583374463671793
47     2      7.847535318533120      7.012440803103424     10.664850125950874
48     2      3.701709031999864      6.809857721391462     10.471732919602385
49     2     10.537008196974091      3.013147605426081     10.799445608390000
50     2      4.877145251092790      3.417567286310605     10.527823663608331
51     2      1.321009979543777      3.613970389652493     10.753405765899602
52     2      9.671430956283636      1.085387165990630     11.931226841463712
53     2      4.162415240719969      0.941616633754329     10.646622017892287
54     2     11.955177097141165      9.644042354042774     10.583877781135037
55     2     14.765388538933545      9.136679790795018     10.750515571344161
56     2      5.780703326561434      5.758953121490745     11.169435896928240
57     2      7.914856166509018      2.107032006242117     10.516939421563960
58     2      6.655243838150840      3.287697191101521     12.144803252522117
59     2     13.012978608400298      6.054422026765821     10.863532933724912
60     2      5.969849890384713      5.093416507275292     13.446599358097490
61     2     12.976321003019354      8.200960153750231     12.269296424891380
0.000000000000000      0.000000000000000      0.000000000000000
11.582409075835649      0.000000000000000      0.000000000000000
5.791204537917825     10.030660496697113      0.000000000000000
0.000000000000000      0.000000000000000     37.821246761657591
}
Driver = ConjugateGradient {
  MaxForceComponent = 1E-4
  MaxSteps = 0
  LatticeOpt = No
  MovedAtoms = "1:-1"
  OutputPrefix = "geo_end"
  AppendGeometries = No
  ConvergentForcesOnly = Yes
  Constraints = {}
}
Hamiltonian = DFTB {
  EwaldParameter = 0.5
  Filling = Fermi {
    Temperature = 0.01
    IndependentKFilling = No
  }
  KPointsAndWeights = {
-0.33333333 -0.33333333  0.         1.0
-0.33333333  0.          0.         1.0
-0.33333333  0.33333333  0.         1.0
0.         -0.33333333  0.         1.0
0. 0. 0. 1.0
0.         0.33333333 0.         1.0
0.33333333 -0.33333333  0.         1.0
0.33333333 0.         0.         1.0
0.33333333 0.33333333 0.         1.0
  }
  MaxAngularMomentum = {
    H = s
    Si = p
  }
  SCC = YES
  SlaterKosterFiles = Type2FileNames {
    Prefix = /user/panosetti/data/progs/DFTB/parameters/pbc/pbc-0-3/
    Separator = "-"
    Suffix = ".skf"
    LowerCaseTypeName = No
  }
  PolynomialRepulsive = {}
  OldRepulsiveSum = No
  OrbitalResolvedSCC = No
  OldSKInterpolation = No
  Charge = 0.000000000000000E+000
  ReadInitialCharges = No
  InitialCharges = {}
  SCCTolerance = 1.000000000000000E-005
  MaxSCCIterations = 100
  Mixer = Broyden {
    MixingParameter = 0.200000000000000
    CachedIterations = -1
    InverseJacobiWeight = 1.000000000000000E-002
    MinimalWeight = 1.00000000000000
    MaximalWeight = 100000.000000000
    WeightFactor = 1.000000000000000E-002
  }
  ElectricField = {}
  DampXH = No
  SpinPolarisation = {}
  Eigensolver = DivideAndConquer {}
  Dispersion = {}
  ManyBodyDispersion = {}
  ThirdOrder = No
  ThirdOrderFull = No
}
Options = {
  WriteResultsTag = Yes
  WriteEigenvectors = No
  WriteAutotestTag = No
  WriteDetailedXML = No
  WriteDetailedOut = Yes
  WriteBandOut = Yes
  AtomResolvedEnergies = No
  RandomSeed = 0
  WriteHS = No
  WriteRealHS = No
  WriteCPA = No
  MinimiseMemoryUsage = No
  ShowFoldedCoords = No
}
ParserOptions = {
  IgnoreUnprocessedNodes = Yes
  ParserVersion = 4
  WriteHSDInput = Yes
  WriteXMLInput = No
  StopAfterParsing = No
}
Analysis = {
  ProjectStates = {}
}
Parallel = {
  RowBlockSize = 32
  ColumnBlockSize = 32
  Groups = 1
}
