Geometry = GenFormat {
61  S
H    Si
1      1     11.582409075835647      8.906309322142173      2.861931711395688
2      1      7.718508045882461      8.917930368849040      2.861259247486378
3      1     15.446310105788838      8.917930368849031      2.861259247486380
4      1      9.660522672401900      5.577504422577177      2.861931704475178
5      1      5.791204537917817      5.561949772975050      2.861407557836226
6      1     13.504295479269409      5.577504422577179      2.861931704475180
7      1      7.712392852791186      2.234353940465613      2.861407546699756
8      1      3.870016223044479      2.234353940465590      2.861407546699758
9      1     11.582409075835635      2.225457518195746      2.861259248360396
10     2     11.582409075835647      8.916142663730767      4.364249352331518
11     2      7.721606050557098      8.916142663730767      4.364249352331518
12     2     15.443212101114197      8.916142663730765      4.364249352331518
13     2      9.652007563196372      5.572589164831729      4.364249352331518
14     2      5.791204537917823      5.572589164831729      4.364249352331518
15     2     13.512810588474922      5.572589164831728      4.364249352331518
16     2      7.721606050557098      2.229035665932691      4.364249352331518
17     2      3.860803025278549      2.229035665932691      4.364249352331518
18     2     11.582409075835647      2.229035665932690      4.364249352331518
19     2      9.652007563196372      7.801624830764421      5.152332469775356
20     2      5.791204537917823      7.801624830764420      5.152332469775356
21     2     13.512810588474922      7.801624830764420      5.152332469775356
22     2      7.721606050557098      4.458071331865383      5.152332469775356
23     2      3.860803025278549      4.458071331865383      5.152332469775356
24     2     11.582409075835647      4.458071331865382      5.152332469775356
25     2      5.791204537917824      1.114517832966344      5.152332469775356
26     2      1.930401512639275      1.114517832966344      5.152332469775356
27     2      9.652007563196374      1.114517832966343      5.152332469775356
28     2      9.652007563196372      7.801624830764421      7.516581822106875
29     2      5.791204537917823      7.801624830764420      7.516581822106875
30     2     13.512810588474922      7.801624830764420      7.516581822106875
31     2      7.721606050557098      4.458071331865383      7.516581822106875
32     2      3.860803025278549      4.458071331865383      7.516581822106875
33     2     11.582409075835647      4.458071331865382      7.516581822106875
34     2      5.791204537917824      1.114517832966344      7.516581822106875
35     2      1.930401512639275      1.114517832966344      7.516581822106875
36     2      9.652007563196374      1.114517832966343      7.516581822106875
37     2     11.582409075835644      6.687108410725525      8.077626163106578
38     2      7.728060117964622      6.661248826533266      8.365103845839801
39     2      3.854348957871022      6.661248826533266      8.365103845839837
40     2      9.632839128814350      3.362074222177971      8.365103935324306
41     2      5.791204537917821      3.343554961094974      8.058025584335471
42     2      1.949569947021307      3.362074222177999      8.365103935324317
43     2      7.695983977999640      0.007342395375962      8.365104574297455
44     2      3.886425097836003      0.007342395375971      8.365104574297456
45     2      0.000000000000020      0.000001863792008      8.477934446897853
46     2     11.582409075835660      6.687107345743716     10.357707257265400
47     2      8.069290483862526      6.102722710787254     10.696521313457279
48     2      3.513118591973150      6.102722710787246     10.696521313457323
49     2      9.319754866757222      3.936849997871116     10.696521444635051
50     2      5.791204537917824      3.343555844537825     10.328744504636806
51     2      2.262654209078475      3.936849997871112     10.696521444635017
52     2      7.041672803305786     -0.008908224536216     10.696522988629228
53     2      4.540736272529911     -0.008908224536227     10.696522988629219
54     2      9.781096096981235      7.727094806222267     11.541921655010798
55     2     13.383722054690049      7.727094806222246     11.541921655010812
56     2      5.791204537917811      5.422186892764842     11.501144748789777
57     2      7.591350047277773      2.304242310033711     11.501144674460603
58     2      3.991059028557869      2.304242310033683     11.501144674460624
59     2     11.582409075835667      4.607128061194942     11.541921812783912
60     2      5.791204537917814      3.343555389576356     12.904383350896254
61     2     11.582409075835670      6.687107618262833     12.950038407658260
0.000000000000000      0.000000000000000      0.000000000000000
11.582409075835649      0.000000000000000      0.000000000000000
5.791204537917825     10.030660496697113      0.000000000000000
0.000000000000000      0.000000000000000     37.821246761657591
}
Driver = ConjugateGradient {
  MaxForceComponent = 1E-4
  MaxSteps = 0
  LatticeOpt = No
  MovedAtoms = "1:-1"
  OutputPrefix = "geo_end"
  AppendGeometries = No
  ConvergentForcesOnly = Yes
  Constraints = {}
}
Hamiltonian = DFTB {
  Charge = 0
  EwaldParameter = 0.1
  Filling = Fermi {
    Temperature = 0.0036
    IndependentKFilling = No
  }
  KPointsAndWeights = {
-0.4 -0.4  0.  1.0
-0.4 -0.2  0.  1.0
0.  -0.4  0.  1.0
0.  -0.2  0.  1.0
0.  0.  0. 1.0
0.   0.2  0.  1.0
0.   0.4  0.  1.0
0.2 -0.4  0.  1.0
0.2 -0.2  0.  1.0
0.2  0.   0.  1.0
0.2  0.2  0.  1.0
0.2  0.4  0.  1.0
-0.4  0.   0.  1.0
0.4 -0.4  0.  1.0
0.4 -0.2  0.  1.0
0.4  0.   0.  1.0
0.4  0.2  0.  1.0
0.4  0.4  0.  1.0
-0.4  0.2  0.  1.0
-0.4  0.4  0.  1.0
-0.2 -0.4  0.  1.0
-0.2 -0.2  0.  1.0
-0.2  0.   0.  1.0
-0.2  0.2  0.  1.0
-0.2  0.4  0.  1.0
  }
  MaxAngularMomentum = {
    H = "s"
    Si = "p"
  }
  MaxSCCIterations = 100
  SCC = YES
  SlaterKosterFiles = Type2FileNames {
    Prefix = /user/panosetti/data/progs/DFTB/parameters/pbc/pbc-0-3/
    Separator = "-"
    Suffix = ".skf"
    LowerCaseTypeName = No
  }
  PolynomialRepulsive = {}
  OldRepulsiveSum = No
  OrbitalResolvedSCC = No
  OldSKInterpolation = No
  ReadInitialCharges = No
  InitialCharges = {}
  SCCTolerance = 1.000000000000000E-005
  Mixer = Broyden {
    MixingParameter = 0.200000000000000
    CachedIterations = -1
    InverseJacobiWeight = 1.000000000000000E-002
    MinimalWeight = 1.00000000000000
    MaximalWeight = 100000.000000000
    WeightFactor = 1.000000000000000E-002
  }
  ElectricField = {}
  DampXH = No
  SpinPolarisation = {}
  Eigensolver = DivideAndConquer {}
  Dispersion = {}
  ThirdOrder = No
  ThirdOrderFull = No
}
Options = {
  WriteResultsTag = Yes
  WriteEigenvectors = No
  WriteAutotestTag = No
  WriteDetailedXML = No
  WriteDetailedOut = Yes
  WriteBandOut = Yes
  AtomResolvedEnergies = No
  RandomSeed = 0
  WriteHS = No
  WriteRealHS = No
  MinimiseMemoryUsage = No
  ShowFoldedCoords = No
}
ParserOptions = {
  ParserVersion = 4
  WriteHSDInput = Yes
  WriteXMLInput = No
  StopAfterParsing = No
  IgnoreUnprocessedNodes = No
}
Analysis = {
  ProjectStates = {}
}
Parallel = {
  RowBlockSize = 32
  ColumnBlockSize = 32
  Groups = 1
}
