Geometry = GenFormat {
61  S
H    Si
1      1     11.582409075835647      8.906309322142173      2.861931711395688
2      1      7.718508045882461      8.917930368849040      2.861259247486378
3      1     15.446310105788838      8.917930368849031      2.861259247486380
4      1      9.660522672401900      5.577504422577177      2.861931704475178
5      1      5.791204537917817      5.561949772975050      2.861407557836226
6      1     13.504295479269409      5.577504422577179      2.861931704475180
7      1      7.712392852791186      2.234353940465613      2.861407546699756
8      1      3.870016223044479      2.234353940465590      2.861407546699758
9      1     11.582409075835635      2.225457518195746      2.861259248360396
10     2     11.582409075835647      8.916142663730767      4.364249352331518
11     2      7.721606050557098      8.916142663730767      4.364249352331518
12     2     15.443212101114197      8.916142663730765      4.364249352331518
13     2      9.652007563196372      5.572589164831729      4.364249352331518
14     2      5.791204537917823      5.572589164831729      4.364249352331518
15     2     13.512810588474922      5.572589164831728      4.364249352331518
16     2      7.721606050557098      2.229035665932691      4.364249352331518
17     2      3.860803025278549      2.229035665932691      4.364249352331518
18     2     11.582409075835647      2.229035665932690      4.364249352331518
19     2      9.652007563196372      7.801624830764421      5.152332469775356
20     2      5.791204537917823      7.801624830764420      5.152332469775356
21     2     13.512810588474922      7.801624830764420      5.152332469775356
22     2      7.721606050557098      4.458071331865383      5.152332469775356
23     2      3.860803025278549      4.458071331865383      5.152332469775356
24     2     11.582409075835647      4.458071331865382      5.152332469775356
25     2      5.791204537917824      1.114517832966344      5.152332469775356
26     2      1.930401512639275      1.114517832966344      5.152332469775356
27     2      9.652007563196374      1.114517832966343      5.152332469775356
28     2      9.805390598440551      7.957077052562344      7.565945281266786
29     2      5.890255997614227      7.969490903732829      7.530465364929023
30     2     13.533108957833983      7.903622680349891      7.552280107842997
31     2      7.894580450636260      4.613030375908086      7.436428270808198
32     2      3.856487830816306      4.600074369311052      7.437097883914626
33     2     11.706366150708091      4.622331350282608      7.565406052629431
34     2      5.858836049092658      1.142760137848446      7.432868886532527
35     2      1.977435104292602      1.232928076088708      7.627896295044256
36     2      9.790993354904350      1.225278371066620      7.562305605833618
37     2     11.676671342634833      6.822924623842075      8.580424129493888
38     2      7.867592574054921      6.841769388959542      8.292401061335745
39     2      3.945004042285202      6.832163012641767      8.243483857699413
40     2      9.780333240181266      3.526014355570829      8.369583747873545
41     2      5.868223193889230      3.458606049184439      7.801207770469238
42     2      2.041948530244529      3.521288621175027      8.464200704724520
43     2      7.813044524579390      0.153179914997278      8.284911393550324
44     2      3.978442496359308      0.177452541614612      8.437810000165953
45     2      0.075628069356253      0.101861897539301      8.564429219772775
46     2     12.139024595727671      6.896632228020585     10.941963253609869
47     2      8.618262807625811      6.715025609825564     10.608929354436015
48     2      3.793147244671971      6.645877484679278     10.617206583386553
49     2      9.860868945896677      4.534193202628015     10.614334245505722
50     2      6.201264219107237      4.022561653568165     10.036522617410514
51     2      2.598963219504044      4.390244339983595     10.706949627475147
52     2      7.412742024341234      0.572096949177288     10.597530149391954
53     2      4.880323096586236      0.600631334361550     10.677659657050775
54     2      9.945788372573608      8.600064847458604     11.859694588666709
55     2     14.120119266454871      8.600449188537072     11.743904318579808
56     2      6.221043389113542      6.122547997854639     11.212470765694174
57     2      8.048044553525823      2.940597199988514     11.158119171956891
58     2      4.487664406008854      2.957654355437479     11.366622802375151
59     2     12.025920047901442      4.748510392421506     11.918414661829585
60     2      6.329247383902946      4.039335004573982     12.587290410448595
61     2     12.047175903123987      8.150876676157250     12.890445441083045
0.000000000000000      0.000000000000000      0.000000000000000
11.582409075835649      0.000000000000000      0.000000000000000
5.791204537917825     10.030660496697113      0.000000000000000
0.000000000000000      0.000000000000000     37.821246761657591
}
Driver = ConjugateGradient {
  MaxForceComponent = 1E-4
  MaxSteps = 0
  LatticeOpt = No
  MovedAtoms = "1:-1"
  OutputPrefix = "geo_end"
  AppendGeometries = No
  ConvergentForcesOnly = Yes
  Constraints = {}
}
Hamiltonian = DFTB {
  EwaldParameter = 0.5
  Filling = Fermi {
    Temperature = 0.01
    IndependentKFilling = No
  }
  KPointsAndWeights = {
-0.33333333 -0.33333333  0.         1.0
-0.33333333  0.          0.         1.0
-0.33333333  0.33333333  0.         1.0
0.         -0.33333333  0.         1.0
0. 0. 0. 1.0
0.         0.33333333 0.         1.0
0.33333333 -0.33333333  0.         1.0
0.33333333 0.         0.         1.0
0.33333333 0.33333333 0.         1.0
  }
  MaxAngularMomentum = {
    H = s
    Si = p
  }
  SCC = YES
  SlaterKosterFiles = Type2FileNames {
    Prefix = /user/panosetti/data/progs/DFTB/parameters/pbc/pbc-0-3/
    Separator = "-"
    Suffix = ".skf"
    LowerCaseTypeName = No
  }
  PolynomialRepulsive = {}
  OldRepulsiveSum = No
  OrbitalResolvedSCC = No
  OldSKInterpolation = No
  Charge = 0.000000000000000E+000
  ReadInitialCharges = No
  InitialCharges = {}
  SCCTolerance = 1.000000000000000E-005
  MaxSCCIterations = 100
  Mixer = Broyden {
    MixingParameter = 0.200000000000000
    CachedIterations = -1
    InverseJacobiWeight = 1.000000000000000E-002
    MinimalWeight = 1.00000000000000
    MaximalWeight = 100000.000000000
    WeightFactor = 1.000000000000000E-002
  }
  ElectricField = {}
  DampXH = No
  SpinPolarisation = {}
  Eigensolver = DivideAndConquer {}
  Dispersion = {}
  ManyBodyDispersion = {}
  ThirdOrder = No
  ThirdOrderFull = No
}
Options = {
  WriteResultsTag = Yes
  WriteEigenvectors = No
  WriteAutotestTag = No
  WriteDetailedXML = No
  WriteDetailedOut = Yes
  WriteBandOut = Yes
  AtomResolvedEnergies = No
  RandomSeed = 0
  WriteHS = No
  WriteRealHS = No
  WriteCPA = No
  MinimiseMemoryUsage = No
  ShowFoldedCoords = No
}
ParserOptions = {
  IgnoreUnprocessedNodes = Yes
  ParserVersion = 4
  WriteHSDInput = Yes
  WriteXMLInput = No
  StopAfterParsing = No
}
Analysis = {
  ProjectStates = {}
}
Parallel = {
  RowBlockSize = 32
  ColumnBlockSize = 32
  Groups = 1
}
