Geometry = GenFormat {
61  S
H    Si
1      1     11.582409075835647      8.906309322142173      2.861931711395688
2      1      7.718508045882461      8.917930368849040      2.861259247486378
3      1     15.446310105788838      8.917930368849031      2.861259247486380
4      1      9.660522672401900      5.577504422577177      2.861931704475178
5      1      5.791204537917817      5.561949772975050      2.861407557836226
6      1     13.504295479269409      5.577504422577179      2.861931704475180
7      1      7.712392852791186      2.234353940465613      2.861407546699756
8      1      3.870016223044479      2.234353940465590      2.861407546699758
9      1     11.582409075835635      2.225457518195746      2.861259248360396
10     2     11.582409075835647      8.916142663730767      4.364249352331518
11     2      7.721606050557098      8.916142663730767      4.364249352331518
12     2     15.443212101114197      8.916142663730765      4.364249352331518
13     2      9.652007563196372      5.572589164831729      4.364249352331518
14     2      5.791204537917823      5.572589164831729      4.364249352331518
15     2     13.512810588474922      5.572589164831728      4.364249352331518
16     2      7.721606050557098      2.229035665932691      4.364249352331518
17     2      3.860803025278549      2.229035665932691      4.364249352331518
18     2     11.582409075835647      2.229035665932690      4.364249352331518
19     2      9.652007563196372      7.801624830764421      5.152332469775356
20     2      5.791204537917823      7.801624830764420      5.152332469775356
21     2     13.512810588474922      7.801624830764420      5.152332469775356
22     2      7.721606050557098      4.458071331865383      5.152332469775356
23     2      3.860803025278549      4.458071331865383      5.152332469775356
24     2     11.582409075835647      4.458071331865382      5.152332469775356
25     2      5.791204537917824      1.114517832966344      5.152332469775356
26     2      1.930401512639275      1.114517832966344      5.152332469775356
27     2      9.652007563196374      1.114517832966343      5.152332469775356
28     2      9.685849119775712      7.754341351961168      7.609389515939664
29     2      5.869127587836255      7.847078957561931      7.564058455300497
30     2     13.486966493988692      7.815540305115350      7.518259822776122
31     2      7.762240046097868      4.475889665318286      7.431003611895938
32     2      3.851723650973890      4.396189912023188      7.485439729458081
33     2     11.633559453017400      4.404302409051486      7.468416038221974
34     2      5.822758936274405      1.036431715454517      7.417605943446324
35     2      1.949967968058506      0.998082056849280      7.556237305658627
36     2      9.752778927386712      1.023388002869682      7.493402020893336
37     2     11.638768693471292      6.586341283699536      8.358214161600516
38     2      7.741467497269197      6.615493212622280      8.416796096319993
39     2      3.885482527580368      6.716393634461781      8.167036636213375
40     2      9.647725313298276      3.280049568438374      8.150412344368000
41     2      5.865196956072654      3.271783835914389      8.089064233515579
42     2      1.925537376968534      3.212977576363623      8.454867182851565
43     2      7.764648803467042      0.039462979826019      8.303194449233033
44     2      3.978608498211215     -0.023828385250602      8.414953374899660
45     2      0.036145480785115     -0.014232999471996      8.592467753228188
46     2     11.965219479507613      5.620009695768105     10.534579493749490
47     2      7.735308651574151      5.450119138043724     10.489590584197000
48     2      3.404404807660400      5.312479371032056     10.076928097355124
49     2      9.446728770629182      3.275597898442913     10.571083967564540
50     2      6.111214319707821      2.692450508384605     10.391622431317305
51     2      2.292154937864263      3.301903848353831     12.398755278644227
52     2      7.371046025784778      0.217347492909505     10.697633555764646
53     2      4.896709203916294      0.216642579834643     10.670316292325346
54     2      9.815309655699316      5.528568306170921     11.648279130009509
55     2     13.268243792735539      5.725319177060801     12.559643759231701
56     2      5.514484331748699      5.069276283417421     11.295643927236455
57     2      7.874096305547694      2.152526634926900     12.086680295399635
58     2      3.657626525531718      2.302412530788436     10.659615167201089
59     2     12.038315595697801      3.184299215183685     10.717899718499886
60     2      5.601972159717593      3.245641140334539     12.823566728482708
61     2     11.286344008838062      4.372647859697048     13.182213940495366
0.000000000000000      0.000000000000000      0.000000000000000
11.582409075835649      0.000000000000000      0.000000000000000
5.791204537917825     10.030660496697113      0.000000000000000
0.000000000000000      0.000000000000000     37.821246761657591
}
Driver = ConjugateGradient {
  MaxForceComponent = 1E-4
  MaxSteps = 0
  LatticeOpt = No
  MovedAtoms = "1:-1"
  OutputPrefix = "geo_end"
  AppendGeometries = No
  ConvergentForcesOnly = Yes
  Constraints = {}
}
Hamiltonian = DFTB {
  EwaldParameter = 0.5
  Filling = Fermi {
    Temperature = 0.01
    IndependentKFilling = No
  }
  KPointsAndWeights = {
-0.33333333 -0.33333333  0.         1.0
-0.33333333  0.          0.         1.0
-0.33333333  0.33333333  0.         1.0
0.         -0.33333333  0.         1.0
0. 0. 0. 1.0
0.         0.33333333 0.         1.0
0.33333333 -0.33333333  0.         1.0
0.33333333 0.         0.         1.0
0.33333333 0.33333333 0.         1.0
  }
  MaxAngularMomentum = {
    H = s
    Si = p
  }
  SCC = YES
  SlaterKosterFiles = Type2FileNames {
    Prefix = /user/panosetti/data/progs/DFTB/parameters/pbc/pbc-0-3/
    Separator = "-"
    Suffix = ".skf"
    LowerCaseTypeName = No
  }
  PolynomialRepulsive = {}
  OldRepulsiveSum = No
  OrbitalResolvedSCC = No
  OldSKInterpolation = No
  Charge = 0.000000000000000E+000
  ReadInitialCharges = No
  InitialCharges = {}
  SCCTolerance = 1.000000000000000E-005
  MaxSCCIterations = 100
  Mixer = Broyden {
    MixingParameter = 0.200000000000000
    CachedIterations = -1
    InverseJacobiWeight = 1.000000000000000E-002
    MinimalWeight = 1.00000000000000
    MaximalWeight = 100000.000000000
    WeightFactor = 1.000000000000000E-002
  }
  ElectricField = {}
  DampXH = No
  SpinPolarisation = {}
  Eigensolver = DivideAndConquer {}
  Dispersion = {}
  ManyBodyDispersion = {}
  ThirdOrder = No
  ThirdOrderFull = No
}
Options = {
  WriteResultsTag = Yes
  WriteEigenvectors = No
  WriteAutotestTag = No
  WriteDetailedXML = No
  WriteDetailedOut = Yes
  WriteBandOut = Yes
  AtomResolvedEnergies = No
  RandomSeed = 0
  WriteHS = No
  WriteRealHS = No
  WriteCPA = No
  MinimiseMemoryUsage = No
  ShowFoldedCoords = No
}
ParserOptions = {
  IgnoreUnprocessedNodes = Yes
  ParserVersion = 4
  WriteHSDInput = Yes
  WriteXMLInput = No
  StopAfterParsing = No
}
Analysis = {
  ProjectStates = {}
}
Parallel = {
  RowBlockSize = 32
  ColumnBlockSize = 32
  Groups = 1
}
