Geometry = GenFormat {
61  S
H    Si
1      1     11.582409075835647      8.906309322142173      2.861931711395688
2      1      7.718508045882461      8.917930368849040      2.861259247486378
3      1     15.446310105788838      8.917930368849031      2.861259247486380
4      1      9.660522672401900      5.577504422577177      2.861931704475178
5      1      5.791204537917817      5.561949772975050      2.861407557836226
6      1     13.504295479269409      5.577504422577179      2.861931704475180
7      1      7.712392852791186      2.234353940465613      2.861407546699756
8      1      3.870016223044479      2.234353940465590      2.861407546699758
9      1     11.582409075835635      2.225457518195746      2.861259248360396
10     2     11.582409075835647      8.916142663730767      4.364249352331518
11     2      7.721606050557098      8.916142663730767      4.364249352331518
12     2     15.443212101114197      8.916142663730765      4.364249352331518
13     2      9.652007563196372      5.572589164831729      4.364249352331518
14     2      5.791204537917823      5.572589164831729      4.364249352331518
15     2     13.512810588474922      5.572589164831728      4.364249352331518
16     2      7.721606050557098      2.229035665932691      4.364249352331518
17     2      3.860803025278549      2.229035665932691      4.364249352331518
18     2     11.582409075835647      2.229035665932690      4.364249352331518
19     2      9.652007563196372      7.801624830764421      5.152332469775356
20     2      5.791204537917823      7.801624830764420      5.152332469775356
21     2     13.512810588474922      7.801624830764420      5.152332469775356
22     2      7.721606050557098      4.458071331865383      5.152332469775356
23     2      3.860803025278549      4.458071331865383      5.152332469775356
24     2     11.582409075835647      4.458071331865382      5.152332469775356
25     2      5.791204537917824      1.114517832966344      5.152332469775356
26     2      1.930401512639275      1.114517832966344      5.152332469775356
27     2      9.652007563196374      1.114517832966343      5.152332469775356
28     2      9.732086823793756      7.793052247204840      7.455582378411650
29     2      5.797806816831107      7.845518702078984      7.453435501913192
30     2     13.551938684017991      7.831960258109262      7.481257945202231
31     2      7.727696844513845      4.472709904881427      7.510252082857702
32     2      3.801702452933855      4.354551608925127      7.516779118067896
33     2     11.642997068217385      4.418586826680649      7.544190284692673
34     2      5.757102901863328      1.138890211345250      7.557756362514698
35     2      1.913699896570628      1.072947188180137      7.632001117789392
36     2      9.666646923688822      1.159297668186940      7.535265574736028
37     2     11.630691809314566      6.649412273268952      8.408313657997148
38     2      7.735378393070467      6.741039310006535      8.175141938602755
39     2      3.917019008767787      6.638025888636619      8.109679746840296
40     2      9.649234228859052      3.392982303204658      8.386346213634093
41     2      5.784140235916268      3.387188123238432      8.330364743429936
42     2      1.911754234371623      3.292844574957154      8.560750658246235
43     2      7.730437067739558      0.044770190360368      8.291589899313463
44     2      3.884930557924979     -0.101544536589985      8.413089865625718
45     2     -0.083533303257038     -0.058879920133990      8.468286594372282
46     2     10.329285936887935      6.278310021683674     10.514372544405127
47     2      9.647341874014423      8.988538073659337     10.695090194571279
48     2      4.834146740380760      9.405667150038029     10.782750389532820
49     2      9.735263078723779      3.901241616666196     10.758113435624463
50     2      7.978979252724023      6.934913077846399     10.513722158740679
51     2      4.018120800979329      7.109193540429948     10.385469684532708
52     2      8.011335762257408     -0.252424447570570     10.623900992709416
53     2      5.792072232880837      3.272578744814250     10.707401639952119
54     2     11.667720926588665      9.543525667006101     11.986288436349774
55     2     11.690814212745437      7.002898882937303     12.268056016716452
56     2      6.301382516142397      7.644833319354460     12.055502568583558
57     2      7.545349320618102      4.675701672187458     11.557168595129722
58     2      4.839174607810802      5.277446668799277     11.528915860705217
59     2     13.241571933500266      7.424840992299659     10.535638413767170
60     2      6.264174064033888      5.586597093910531     13.441810609951846
61     2     11.882609696074802      8.223445127978589     14.070822700844733
0.000000000000000      0.000000000000000      0.000000000000000
11.582409075835649      0.000000000000000      0.000000000000000
5.791204537917825     10.030660496697113      0.000000000000000
0.000000000000000      0.000000000000000     37.821246761657591
}
Driver = ConjugateGradient {
  MaxForceComponent = 1E-4
  MaxSteps = 0
  LatticeOpt = No
  MovedAtoms = "1:-1"
  OutputPrefix = "geo_end"
  AppendGeometries = No
  ConvergentForcesOnly = Yes
  Constraints = {}
}
Hamiltonian = DFTB {
  EwaldParameter = 0.5
  Filling = Fermi {
    Temperature = 0.01
    IndependentKFilling = No
  }
  KPointsAndWeights = {
-0.33333333 -0.33333333  0.         1.0
-0.33333333  0.          0.         1.0
-0.33333333  0.33333333  0.         1.0
0.         -0.33333333  0.         1.0
0. 0. 0. 1.0
0.         0.33333333 0.         1.0
0.33333333 -0.33333333  0.         1.0
0.33333333 0.         0.         1.0
0.33333333 0.33333333 0.         1.0
  }
  MaxAngularMomentum = {
    H = s
    Si = p
  }
  SCC = YES
  SlaterKosterFiles = Type2FileNames {
    Prefix = /user/panosetti/data/progs/DFTB/parameters/pbc/pbc-0-3/
    Separator = "-"
    Suffix = ".skf"
    LowerCaseTypeName = No
  }
  PolynomialRepulsive = {}
  OldRepulsiveSum = No
  OrbitalResolvedSCC = No
  OldSKInterpolation = No
  Charge = 0.000000000000000E+000
  ReadInitialCharges = No
  InitialCharges = {}
  SCCTolerance = 1.000000000000000E-005
  MaxSCCIterations = 100
  Mixer = Broyden {
    MixingParameter = 0.200000000000000
    CachedIterations = -1
    InverseJacobiWeight = 1.000000000000000E-002
    MinimalWeight = 1.00000000000000
    MaximalWeight = 100000.000000000
    WeightFactor = 1.000000000000000E-002
  }
  ElectricField = {}
  DampXH = No
  SpinPolarisation = {}
  Eigensolver = DivideAndConquer {}
  Dispersion = {}
  ManyBodyDispersion = {}
  ThirdOrder = No
  ThirdOrderFull = No
}
Options = {
  WriteResultsTag = Yes
  WriteEigenvectors = No
  WriteAutotestTag = No
  WriteDetailedXML = No
  WriteDetailedOut = Yes
  WriteBandOut = Yes
  AtomResolvedEnergies = No
  RandomSeed = 0
  WriteHS = No
  WriteRealHS = No
  WriteCPA = No
  MinimiseMemoryUsage = No
  ShowFoldedCoords = No
}
ParserOptions = {
  IgnoreUnprocessedNodes = Yes
  ParserVersion = 4
  WriteHSDInput = Yes
  WriteXMLInput = No
  StopAfterParsing = No
}
Analysis = {
  ProjectStates = {}
}
Parallel = {
  RowBlockSize = 32
  ColumnBlockSize = 32
  Groups = 1
}
