Geometry = GenFormat {
347  S
H    Si
1      1     34.747227227506947     22.290356659326921      2.800000000000000
2      1     30.886424202228397     22.290356659326921      2.800000000000000
3      1     27.025621176949848     22.290356659326921      2.800000000000000
4      1     23.164818151671298     22.290356659326921      2.800000000000000
5      1     19.304015126392748     22.290356659326918      2.800000000000000
6      1     15.443212101114199     22.290356659326918      2.800000000000000
7      1     38.608030252785497     22.290356659326918      2.800000000000000
8      1     32.816825714867676     18.946803160427883      2.800000000000000
9      1     28.956022689589123     18.946803160427883      2.800000000000000
10     1     25.095219664310573     18.946803160427883      2.800000000000000
11     1     21.234416639032023     18.946803160427883      2.800000000000000
12     1     17.373613613753474     18.946803160427880      2.800000000000000
13     1     13.512810588474924     18.946803160427880      2.800000000000000
14     1     36.677628740146218     18.946803160427880      2.800000000000000
15     1     30.886424202228397     15.603249661528846      2.800000000000000
16     1     27.025621176949848     15.603249661528846      2.800000000000000
17     1     23.164818151671298     15.603249661528844      2.800000000000000
18     1     19.304015126392748     15.603249661528844      2.800000000000000
19     1     15.443212101114199     15.603249661528842      2.800000000000000
20     1     11.582409075835649     15.603249661528842      2.800000000000000
21     1     34.747227227506947     15.603249661528842      2.800000000000000
22     1     28.956022689589123     12.259696162629808      2.800000000000000
23     1     25.095219664310576     12.259696162629806      2.800000000000000
24     1     21.234416639032027     12.259696162629806      2.800000000000000
25     1     17.373613613753474     12.259696162629806      2.800000000000000
26     1     13.512810588474924     12.259696162629806      2.800000000000000
27     1      9.652007563196374     12.259696162629805      2.800000000000000
28     1     32.816825714867676     12.259696162629805      2.800000000000000
29     1     27.025621176949848      8.916142663730769      2.800000000000000
30     1     23.164818151671298      8.916142663730769      2.800000000000000
31     1     19.304015126392748      8.916142663730769      2.800000000000000
32     1     15.443212101114199      8.916142663730769      2.800000000000000
33     1     11.582409075835649      8.916142663730767      2.800000000000000
34     1      7.721606050557099      8.916142663730767      2.800000000000000
35     1     30.886424202228397      8.916142663730767      2.800000000000000
36     1     25.095219664310576      5.572589164831733      2.800000000000000
37     1     21.234416639032027      5.572589164831733      2.800000000000000
38     1     17.373613613753477      5.572589164831729      2.800000000000000
39     1     13.512810588474927      5.572589164831729      2.800000000000000
40     1      9.652007563196378      5.572589164831729      2.800000000000000
41     1      5.791204537917828      5.572589164831729      2.800000000000000
42     1     28.956022689589119      5.572589164831729      2.800000000000000
43     1     23.164818151671298      2.229035665932695      2.800000000000000
44     1     19.304015126392748      2.229035665932692      2.800000000000000
45     1     15.443212101114202      2.229035665932692      2.800000000000000
46     1     11.582409075835653      2.229035665932692      2.800000000000000
47     1      7.721606050557103      2.229035665932692      2.800000000000000
48     1      3.860803025278553      2.229035665932692      2.800000000000000
49     1     27.025621176949848      2.229035665932692      2.800000000000000
50     2     34.747227227506947     22.290356659326921      4.364249352331518
51     2     30.886424202228397     22.290356659326921      4.364249352331518
52     2     27.025621176949848     22.290356659326921      4.364249352331518
53     2     23.164818151671298     22.290356659326921      4.364249352331518
54     2     19.304015126392748     22.290356659326918      4.364249352331518
55     2     15.443212101114199     22.290356659326918      4.364249352331518
56     2     38.608030252785497     22.290356659326918      4.364249352331518
57     2     32.816825714867676     18.946803160427883      4.364249352331518
58     2     28.956022689589123     18.946803160427883      4.364249352331518
59     2     25.095219664310573     18.946803160427883      4.364249352331518
60     2     21.234416639032023     18.946803160427883      4.364249352331518
61     2     17.373613613753474     18.946803160427880      4.364249352331518
62     2     13.512810588474924     18.946803160427880      4.364249352331518
63     2     36.677628740146218     18.946803160427880      4.364249352331518
64     2     30.886424202228397     15.603249661528846      4.364249352331518
65     2     27.025621176949848     15.603249661528846      4.364249352331518
66     2     23.164818151671298     15.603249661528844      4.364249352331518
67     2     19.304015126392748     15.603249661528844      4.364249352331518
68     2     15.443212101114199     15.603249661528842      4.364249352331518
69     2     11.582409075835649     15.603249661528842      4.364249352331518
70     2     34.747227227506947     15.603249661528842      4.364249352331518
71     2     28.956022689589123     12.259696162629808      4.364249352331518
72     2     25.095219664310576     12.259696162629806      4.364249352331518
73     2     21.234416639032027     12.259696162629806      4.364249352331518
74     2     17.373613613753474     12.259696162629806      4.364249352331518
75     2     13.512810588474924     12.259696162629806      4.364249352331518
76     2      9.652007563196374     12.259696162629805      4.364249352331518
77     2     32.816825714867676     12.259696162629805      4.364249352331518
78     2     27.025621176949848      8.916142663730769      4.364249352331518
79     2     23.164818151671298      8.916142663730769      4.364249352331518
80     2     19.304015126392748      8.916142663730769      4.364249352331518
81     2     15.443212101114199      8.916142663730769      4.364249352331518
82     2     11.582409075835649      8.916142663730767      4.364249352331518
83     2      7.721606050557099      8.916142663730767      4.364249352331518
84     2     30.886424202228397      8.916142663730767      4.364249352331518
85     2     25.095219664310576      5.572589164831733      4.364249352331518
86     2     21.234416639032027      5.572589164831733      4.364249352331518
87     2     17.373613613753477      5.572589164831729      4.364249352331518
88     2     13.512810588474927      5.572589164831729      4.364249352331518
89     2      9.652007563196378      5.572589164831729      4.364249352331518
90     2      5.791204537917828      5.572589164831729      4.364249352331518
91     2     28.956022689589119      5.572589164831729      4.364249352331518
92     2     23.164818151671298      2.229035665932695      4.364249352331518
93     2     19.304015126392748      2.229035665932692      4.364249352331518
94     2     15.443212101114202      2.229035665932692      4.364249352331518
95     2     11.582409075835653      2.229035665932692      4.364249352331518
96     2      7.721606050557103      2.229035665932692      4.364249352331518
97     2      3.860803025278553      2.229035665932692      4.364249352331518
98     2     27.025621176949848      2.229035665932692      4.364249352331518
99     2     32.816825714867676     21.175838826360575      5.152332469775356
100    2     28.956022689589123     21.175838826360575      5.152332469775356
101    2     25.095219664310573     21.175838826360575      5.152332469775356
102    2     21.234416639032023     21.175838826360575      5.152332469775356
103    2     17.373613613753474     21.175838826360572      5.152332469775356
104    2     13.512810588474924     21.175838826360572      5.152332469775356
105    2     36.677628740146218     21.175838826360572      5.152332469775356
106    2     30.886424202228397     17.832285327461538      5.152332469775356
107    2     27.025621176949848     17.832285327461538      5.152332469775356
108    2     23.164818151671298     17.832285327461534      5.152332469775356
109    2     19.304015126392748     17.832285327461534      5.152332469775356
110    2     15.443212101114199     17.832285327461534      5.152332469775356
111    2     11.582409075835649     17.832285327461534      5.152332469775356
112    2     34.747227227506947     17.832285327461534      5.152332469775356
113    2     28.956022689589123     14.488731828562498      5.152332469775356
114    2     25.095219664310576     14.488731828562498      5.152332469775356
115    2     21.234416639032027     14.488731828562496      5.152332469775356
116    2     17.373613613753474     14.488731828562496      5.152332469775356
117    2     13.512810588474924     14.488731828562496      5.152332469775356
118    2      9.652007563196374     14.488731828562496      5.152332469775356
119    2     32.816825714867676     14.488731828562496      5.152332469775356
120    2     27.025621176949848     11.145178329663461      5.152332469775356
121    2     23.164818151671298     11.145178329663461      5.152332469775356
122    2     19.304015126392748     11.145178329663461      5.152332469775356
123    2     15.443212101114199     11.145178329663461      5.152332469775356
124    2     11.582409075835649     11.145178329663459      5.152332469775356
125    2      7.721606050557099     11.145178329663459      5.152332469775356
126    2     30.886424202228397     11.145178329663459      5.152332469775356
127    2     25.095219664310576      7.801624830764425      5.152332469775356
128    2     21.234416639032027      7.801624830764425      5.152332469775356
129    2     17.373613613753474      7.801624830764425      5.152332469775356
130    2     13.512810588474924      7.801624830764425      5.152332469775356
131    2      9.652007563196378      7.801624830764423      5.152332469775356
132    2      5.791204537917828      7.801624830764423      5.152332469775356
133    2     28.956022689589126      7.801624830764423      5.152332469775356
134    2     23.164818151671298      4.458071331865387      5.152332469775356
135    2     19.304015126392748      4.458071331865384      5.152332469775356
136    2     15.443212101114202      4.458071331865384      5.152332469775356
137    2     11.582409075835653      4.458071331865384      5.152332469775356
138    2      7.721606050557103      4.458071331865384      5.152332469775356
139    2      3.860803025278553      4.458071331865384      5.152332469775356
140    2     27.025621176949848      4.458071331865384      5.152332469775356
141    2     21.234416639032027      1.114517832966349      5.152332469775356
142    2     17.373613613753477      1.114517832966346      5.152332469775356
143    2     13.512810588474927      1.114517832966346      5.152332469775356
144    2      9.652007563196378      1.114517832966346      5.152332469775356
145    2      5.791204537917832      1.114517832966346      5.152332469775356
146    2      1.930401512639278      1.114517832966346      5.152332469775356
147    2     25.095219664310576      1.114517832966346      5.152332469775356
148    2     32.816825714867676     21.175838826360575      7.516581822106875
149    2     28.956022689589123     21.175838826360575      7.516581822106875
150    2     25.095219664310573     21.175838826360575      7.516581822106875
151    2     21.234416639032023     21.175838826360575      7.516581822106875
152    2     17.373613613753474     21.175838826360572      7.516581822106875
153    2     13.512810588474924     21.175838826360572      7.516581822106875
154    2     36.677628740146218     21.175838826360572      7.516581822106875
155    2     30.886424202228397     17.832285327461538      7.516581822106875
156    2     27.025621176949848     17.832285327461538      7.516581822106875
157    2     23.164818151671298     17.832285327461534      7.516581822106875
158    2     19.304015126392748     17.832285327461534      7.516581822106875
159    2     15.443212101114199     17.832285327461534      7.516581822106875
160    2     11.582409075835649     17.832285327461534      7.516581822106875
161    2     34.747227227506947     17.832285327461534      7.516581822106875
162    2     28.956022689589123     14.488731828562498      7.516581822106875
163    2     25.095219664310576     14.488731828562498      7.516581822106875
164    2     21.234416639032027     14.488731828562496      7.516581822106875
165    2     17.373613613753474     14.488731828562496      7.516581822106875
166    2     13.512810588474924     14.488731828562496      7.516581822106875
167    2      9.652007563196374     14.488731828562496      7.516581822106875
168    2     32.816825714867676     14.488731828562496      7.516581822106875
169    2     27.025621176949848     11.145178329663461      7.516581822106875
170    2     23.164818151671298     11.145178329663461      7.516581822106875
171    2     19.304015126392748     11.145178329663461      7.516581822106875
172    2     15.443212101114199     11.145178329663461      7.516581822106875
173    2     11.582409075835649     11.145178329663459      7.516581822106875
174    2      7.721606050557099     11.145178329663459      7.516581822106875
175    2     30.886424202228397     11.145178329663459      7.516581822106875
176    2     25.095219664310576      7.801624830764425      7.516581822106875
177    2     21.234416639032027      7.801624830764425      7.516581822106875
178    2     17.373613613753474      7.801624830764425      7.516581822106875
179    2     13.512810588474924      7.801624830764425      7.516581822106875
180    2      9.652007563196378      7.801624830764423      7.516581822106875
181    2      5.791204537917828      7.801624830764423      7.516581822106875
182    2     28.956022689589126      7.801624830764423      7.516581822106875
183    2     23.164818151671298      4.458071331865387      7.516581822106875
184    2     19.304015126392748      4.458071331865384      7.516581822106875
185    2     15.443212101114202      4.458071331865384      7.516581822106875
186    2     11.582409075835653      4.458071331865384      7.516581822106875
187    2      7.721606050557103      4.458071331865384      7.516581822106875
188    2      3.860803025278553      4.458071331865384      7.516581822106875
189    2     27.025621176949848      4.458071331865384      7.516581822106875
190    2     21.234416639032027      1.114517832966349      7.516581822106875
191    2     17.373613613753477      1.114517832966346      7.516581822106875
192    2     13.512810588474927      1.114517832966346      7.516581822106875
193    2      9.652007563196378      1.114517832966346      7.516581822106875
194    2      5.791204537917832      1.114517832966346      7.516581822106875
195    2      1.930401512639278      1.114517832966346      7.516581822106875
196    2     25.095219664310576      1.114517832966346      7.516581822106875
197    2     34.746686099028729     20.061009775911998      8.069896830615358
198    2     30.889003249399224     20.062539250461384      8.395873474865105
199    2     27.025621166695640     20.060265707528792      8.049997603852157
200    2     23.162239036023184     20.062539336976201      8.395873649644235
201    2     19.304556252561898     20.061009903737670      8.069896503756702
202    2     15.445489041017613     20.040366964492083      8.351344108096086
203    2     11.580132178168594     20.040366851887132      8.351344255924115
204    2     32.819168978810282     16.719394410197751      8.395872478074672
205    2     28.968037032349041     16.724705781984746      8.398947884040309
206    2     25.083205358140287     16.724705829354388      8.398948237137839
207    2     21.232073359464525     16.719394543887791      8.395872847121879
208    2     17.356366774811811     16.748411756844273      8.380298985489242
209    2     13.512810545149275     16.720188285630218      8.054216202363868
210    2      9.669254372632757     16.748411653198950      8.380298595627055
211    2     30.885509286922993     13.374743781765218      8.049996495155275
212    2     27.025621236246771     13.360342947854296      8.398948153691970
213    2     23.165733163153210     13.374743848960158      8.049998015296174
214    2     19.318555847623486     13.348574384390897      8.370415975479686
215    2     15.455072446955313     13.383053951312172      8.395145788523070
216    2     11.570548541544689     13.383053848186972      8.395145689104202
217    2      7.707065328292860     13.348574193837658      8.370415558798769
218    2     28.955786955969707     10.027820763328883      8.395872597659743
219    2     25.095455546336336     10.027820785344813      8.395872790956098
220    2     21.219480742046525     10.056075779759276      8.370416849486833
221    2     17.374784915611322     10.031338392486557      8.039883415966841
222    2     13.512810498867646     10.027897625110436      8.396897112015720
223    2      9.650836155901079     10.031338321035776      8.039882311975974
224    2      5.806140538507588     10.056075677623062      8.370416173498125
225    2     27.025621286271022      6.687733385656033      8.069897261791493
226    2     23.182732121329991      6.656851656380890      8.380299791059924
227    2     19.317599431000588      6.692961041644241      8.395147156805967
228    2     15.440817717860343      6.688491057352727      8.396897514343552
229    2     11.584803259079163      6.688491045287253      8.396897206858515
230    2      7.708021638850921      6.692961015994789      8.395146562950822
231    2      3.842889204943674      6.656851435639288      8.380298989693745
232    2     25.078210118190405      3.356004371213507      8.351345074305129
233    2     21.236511937164710      3.342345166172706      8.054217870516895
234    2     17.375337409468514      3.328864486302148      8.395147837106919
235    2     13.512810473756119      3.342202395172650      8.039883868015473
236    2      9.650283508258203      3.328864517667086      8.395147341422510
237    2      5.789109293049294      3.342345246708772      8.054217287038252
238    2      1.947411485423117      3.356004505601939      8.351344952831770
239    2     23.145531959054104      0.008507449480862      8.351345540568360
240    2     19.339175445266697     -0.000383817711168      8.380300675839575
241    2     15.413735694772795      0.000229648885593      8.370417553765243
242    2     11.611885279428403      0.000229695346826      8.370417292584364
243    2      7.686445511062558     -0.000383604230146      8.380300261919711
244    2      3.880089471501172      0.008507658916950      8.351345270490686
245    2      0.000000155165978      0.000001716547106      8.503089021460781
246    2     34.706025741520072     20.037532570455372     10.343633879143846
247    2     30.904520812383861     20.062583125108176     10.838298240063134
248    2     27.025621166617704     20.013781040803796     10.314445094211258
249    2     23.146721187070746     20.062584025301454     10.838298236679750
250    2     19.345216356564574     20.037533585122578     10.343633881215691
251    2     15.768325685522289     19.514197178018954     10.678290157419303
252    2     11.257295356944367     19.514196203138194     10.678290184420652
253    2     32.826967023684581     16.732811204390025     10.838295747053804
254    2     29.063746389809779     16.779963452708060     10.843228868912613
255    2     24.987496321339862     16.779963698823359     10.843229395360797
256    2     21.224275337548878     16.732812414691235     10.838296385521939
257    2     17.005009990873312     17.375885099754331     10.702358535809298
258    2     13.512810390144107     16.672578529073203     10.318706722840398
259    2     10.020610789564781     17.375884334052387     10.702358184445751
260    2     30.845256690665373     13.397986578168558     10.314444286387719
261    2     27.025621568549841     13.249828642973853     10.843229564317543
262    2     23.205986317844349     13.397986967538115     10.314445599937999
263    2     19.665644704413417     12.768420514915441     10.694164729058874
264    2     15.437555650344477     13.390601721670222     10.829073101134496
265    2     11.588064071910974     13.390601238102169     10.829072737926040
266    2      7.359976199931212     12.768419827100852     10.694163276968654
267    2     28.948066146489865     10.014361597568994     10.838296034704856
268    2     25.103177859882525     10.014361754627362     10.838296674858503
269    2     20.890597962121188     10.646742387723334     10.694165893071650
270    2     17.337188101191217     10.009631433577955     10.295719521741791
271    2     13.512810032081218     10.158086529275693     10.829298039393043
272    2      9.688432268371228     10.009631545913052     10.295718069403708
273    2      6.135023418541476     10.646742289880970     10.694164138704089
274    2     27.025621927547469      6.734686497852508     10.343635317148927
275    2     23.550463396712882      6.038832061076686     10.702360404629548
276    2     19.315378769419087      6.674017038633019     10.829075379810174
277    2     15.553564234189793      6.623396826144198     10.829298745410821
278    2     11.472055852080002      6.623396838813376     10.829298040470562
279    2      7.710242054274056      6.674017675910854     10.829074061095547
280    2      3.475158943358471      6.038832250347025     10.702359279938538
281    2     24.783951602488891      3.898673173166343     10.678291980978383
282    2     21.195281632516320      3.366150764912796     10.318709935830157
283    2     17.390632806790475      3.340258906890990     10.829076874718622
284    2     13.512810281063958      3.385619011717851     10.295720135293053
285    2      9.634987599390634      3.340259298019491     10.829075917224460
286    2      5.830339872875776      3.366151183197773     10.318708221347631
287    2      2.241671362233104      3.898673714667525     10.678291389092564
288    2     22.528438901934990     -0.007992960245102     10.678292981371689
289    2     20.058260263951137     -0.009838346438766     10.702362082258393
290    2     14.737763527059247     -0.010281969781922     10.694167641305640
291    2     12.287856932617839     -0.010281852938863     10.694167336680412
292    2      6.967360798996316     -0.009837473114941     10.702361305247919
293    2      4.497182728997358     -0.007992053569230     10.678292360494167
294    2     32.976961377589916     21.179120128214901     11.517859045632116
295    2     28.796781716323981     21.146844254263875     11.473513688499979
296    2     25.254460545723603     21.146844351240158     11.473513508220169
297    2     21.074280512929203     21.179121254088173     11.517858666729982
298    2     17.513921644739025     21.094831105748099     11.502331873945129
299    2     27.025621555066714     17.934779727082244     11.453518083769422
300    2     23.101099952024327     17.869072377743848     11.900021171318304
301    2     19.221103001560461     17.969323817847755     11.517858704273687
302    2     13.512810556130061     18.785567815907374     11.467862991937603
303    2     36.537320844784389     21.094829868872655     11.502332121920086
304    2     30.950142839390615     17.869071183810803     11.900020446673196
305    2     25.006455368485540     14.437484614154696     11.453516115484421
306    2     21.339141338011736     14.365324350678208     11.473513321280887
307    2     15.368132443918698     15.749837782003995     11.484707266264635
308    2     11.657488413195200     15.749837232376194     11.484706502849106
309    2     34.830138868075451     17.969322510617523     11.517857861474489
310    2     29.044788204931521     14.437484346734987     11.453515549476576
311    2     27.025622427883100     11.071604990789240     11.900022080338649
312    2     23.110308757312314     11.297581586935584     11.473514106175127
313    2     17.437067308000366     12.109409632486370     11.447333401058424
314    2     13.512809622166321     12.334526119490663     11.891625100840596
315    2      9.588552625833879     12.109408752922123     11.447332107467433
316    2     32.712101103835359     14.365323083884405     11.473511905953805
317    2     25.172442818907765      7.661304909176331     11.517860396643961
318    2     19.205589946155083      9.046245406335613     11.447334577342646
319    2     15.534972807066536      8.969124937369600     11.428495154041178
320    2     11.490646880473230      8.969124808876504     11.428493997851922
321    2      7.820030906345162      9.046245743847280     11.447332142615158
322    2     30.940934775863976     11.297582017681728     11.473512512439186
323    2     27.025622314685659      4.620085365350879     11.502333845625477
324    2     21.323824199717766      5.434279269554208     11.484712660145853
325    2     17.438414555193965      5.535179952781017     11.891628487808644
326    2     13.512809732301568      5.466637617924870     11.428497676228840
327    2      9.587205365074066      5.535180340764442     11.891626158067512
328    2      5.701797818983229      5.434279113398626     11.484709161078150
329    2     28.878801165893808      7.661305018127739     11.517859177553504
330    2     23.025183125217630      2.309656927607513     11.467866507521920
331    2     19.468502783347684      2.220766822888529     11.484712043212626
332    2     15.281327590463871      2.249230624497808     11.447335072734450
333    2     11.744292331541136      2.249230809296449     11.447333930040783
334    2      7.557118044844509      2.220767630139577     11.484709305141898
335    2      4.000439349481806      2.309657713044708     11.467864520182109
336    2      5.777041884529794      3.335378919316962     12.888322594887823
337    2     13.512809460789638      3.352730466294800     12.837802873188224
338    2     21.248580225714132      3.335377868344505     12.888327124401137
339    2      9.659951727873249     10.026074780023116     12.837798100969383
340    2     17.365667855836239     10.026075159567347     12.837800861814788
341    2     13.512810141930533     16.734120749709824     12.888319275582290
342    2     27.025622572463867      6.672581193250866     12.923957901823767
343    2     23.176642654187219     13.381045454562678     12.860370270551646
344    2     30.874600747111348     13.381044788360295     12.860368169009693
345    2     19.291430867768788     20.068586800999956     12.923956590571251
346    2     27.025621121649948     20.047666009795918     12.860372915722868
347    2     34.759811275423978     20.068585064462702     12.923956164330811
0.000000000000000      0.000000000000000      0.000000000000000
27.025621176949848      0.000000000000000      0.000000000000000
13.512810588474924     23.404874492293263      0.000000000000000
0.000000000000000      0.000000000000000     37.821246761657591
}
Driver = ConjugateGradient {
  MaxForceComponent = 1E-4
  MaxSteps = 0
  LatticeOpt = No
  MovedAtoms = "1:-1"
  OutputPrefix = "geo_end"
  AppendGeometries = No
  ConvergentForcesOnly = Yes
  Constraints = {}
}
Hamiltonian = DFTB {
  Charge = 0
  Filling = Fermi {
    Temperature = 0.0036
    IndependentKFilling = No
  }
  KPointsAndWeights = {
0.  0.  0. 1.0
  }
  MaxAngularMomentum = {
    H = "s"
    Si = "p"
  }
  MaxSCCIterations = 300
  SCC = YES
  SlaterKosterFiles = Type2FileNames {
    Prefix = /user/panosetti/data/progs/DFTB/parameters/pbc/pbc-0-3/
    Separator = "-"
    Suffix = ".skf"
    LowerCaseTypeName = No
  }
  PolynomialRepulsive = {}
  OldRepulsiveSum = No
  OrbitalResolvedSCC = No
  OldSKInterpolation = No
  ReadInitialCharges = No
  InitialCharges = {}
  SCCTolerance = 1.000000000000000E-005
  Mixer = Broyden {
    MixingParameter = 0.200000000000000
    CachedIterations = -1
    InverseJacobiWeight = 1.000000000000000E-002
    MinimalWeight = 1.00000000000000
    MaximalWeight = 100000.000000000
    WeightFactor = 1.000000000000000E-002
  }
  ElectricField = {}
  DampXH = No
  EwaldParameter = 0.000000000000000E+000
  SpinPolarisation = {}
  Eigensolver = DivideAndConquer {}
  Dispersion = {}
  ThirdOrder = No
  ThirdOrderFull = No
}
Options = {
  WriteResultsTag = Yes
  WriteEigenvectors = No
  WriteAutotestTag = No
  WriteDetailedXML = No
  WriteDetailedOut = Yes
  WriteBandOut = Yes
  AtomResolvedEnergies = No
  RandomSeed = 0
  WriteHS = No
  WriteRealHS = No
  MinimiseMemoryUsage = No
  ShowFoldedCoords = No
}
ParserOptions = {
  ParserVersion = 4
  WriteHSDInput = Yes
  WriteXMLInput = No
  StopAfterParsing = No
  IgnoreUnprocessedNodes = No
}
Analysis = {
  ProjectStates = {}
}
Parallel = {
  RowBlockSize = 32
  ColumnBlockSize = 32
  Groups = 1
}
