Geometry = GenFormat {
175  S
H    Si
1      1     23.157533546041908     15.595130873807356      2.862204646940030
2      1     19.304015114467006     15.614333176989337      2.861836778587413
3      1     15.450496706327469     15.595130868573428      2.862204448322591
4      1     11.589683461044784     15.599048941423026      2.860490520503547
5      1     27.018346807082121     15.599048946069411      2.860490635302642
6      1     21.236087736975641     12.260659963197126      2.862312089112845
7      1     17.371942507834195     12.260659967795080      2.862311964052183
8      1     13.523483205818652     12.257445593261970      2.862204451361302
9      1      9.652007565362384     12.227421243257643      2.861436945080946
10     1     25.084547056084858     12.257445589956609      2.862204632425523
11     1     19.304015126388876      8.914212022194951      2.862312232189819
12     1     15.433612820558167      8.910599536808450      2.861836904043692
13     1     11.584909494060645      8.903067921102792      2.862668501551663
14     1      7.719105632507239      8.903067919330576      2.862668546517052
15     1     23.174417433051751      8.910599522563690      2.861836995954353
16     1     17.377001678072197      5.582955862412639      2.862204844448806
17     1     13.502738556730160      5.581290603416472      2.862668644321711
18     1      9.652007562623389      5.572588296312617      2.861568374869734
19     1      5.801276568261382      5.581290600016925      2.862668605441664
20     1     21.231028577396206      5.582955858424678      2.862204826896082
21     1     15.415262057263602      2.245171704254249      2.861437140244814
22     1     11.569836617141526      2.233406288055202      2.862668576534467
23     1      7.734178504159384      2.233406287503721      2.862668492688776
24     1      3.888753073312555      2.245171704169442      2.861437015498768
25     1     19.304015130039318      2.237434752497983      2.860490731694540
26     2     23.164818151671295     15.603249661528842      4.364249352331518
27     2     19.304015126392745     15.603249661528842      4.364249352331518
28     2     15.443212101114195     15.603249661528841      4.364249352331518
29     2     11.582409075835645     15.603249661528841      4.364249352331518
30     2     27.025621176949844     15.603249661528841      4.364249352331518
31     2     21.234416639032020     12.259696162629805      4.364249352331518
32     2     17.373613613753470     12.259696162629805      4.364249352331518
33     2     13.512810588474920     12.259696162629803      4.364249352331518
34     2      9.652007563196371     12.259696162629803      4.364249352331518
35     2     25.095219664310569     12.259696162629803      4.364249352331518
36     2     19.304015126392745      8.916142663730767      4.364249352331518
37     2     15.443212101114195      8.916142663730767      4.364249352331518
38     2     11.582409075835645      8.916142663730765      4.364249352331518
39     2      7.721606050557096      8.916142663730765      4.364249352331518
40     2     23.164818151671295      8.916142663730763      4.364249352331518
41     2     17.373613613753470      5.572589164831729      4.364249352331518
42     2     13.512810588474922      5.572589164831728      4.364249352331518
43     2      9.652007563196372      5.572589164831728      4.364249352331518
44     2      5.791204537917821      5.572589164831728      4.364249352331518
45     2     21.234416639032020      5.572589164831728      4.364249352331518
46     2     15.443212101114197      2.229035665932690      4.364249352331518
47     2     11.582409075835647      2.229035665932690      4.364249352331518
48     2      7.721606050557098      2.229035665932690      4.364249352331518
49     2      3.860803025278546      2.229035665932690      4.364249352331518
50     2     19.304015126392745      2.229035665932688      4.364249352331518
51     2     21.234416639032020     14.488731828562496      5.152332469775356
52     2     17.373613613753470     14.488731828562496      5.152332469775356
53     2     13.512810588474920     14.488731828562495      5.152332469775356
54     2      9.652007563196371     14.488731828562495      5.152332469775356
55     2     25.095219664310569     14.488731828562495      5.152332469775356
56     2     19.304015126392745     11.145178329663459      5.152332469775356
57     2     15.443212101114195     11.145178329663459      5.152332469775356
58     2     11.582409075835645     11.145178329663457      5.152332469775356
59     2      7.721606050557096     11.145178329663457      5.152332469775356
60     2     23.164818151671295     11.145178329663455      5.152332469775356
61     2     17.373613613753470      7.801624830764419      5.152332469775356
62     2     13.512810588474922      7.801624830764419      5.152332469775356
63     2      9.652007563196372      7.801624830764418      5.152332469775356
64     2      5.791204537917821      7.801624830764418      5.152332469775356
65     2     21.234416639032020      7.801624830764418      5.152332469775356
66     2     15.443212101114197      4.458071331865382      5.152332469775356
67     2     11.582409075835647      4.458071331865382      5.152332469775356
68     2      7.721606050557098      4.458071331865382      5.152332469775356
69     2      3.860803025278546      4.458071331865382      5.152332469775356
70     2     19.304015126392745      4.458071331865380      5.152332469775356
71     2     13.512810588474922      1.114517832966346      5.152332469775356
72     2      9.652007563196372      1.114517832966346      5.152332469775356
73     2      5.791204537917821      1.114517832966346      5.152332469775356
74     2      1.930401512639271      1.114517832966346      5.152332469775356
75     2     17.373613613753474      1.114517832966344      5.152332469775356
76     2     21.234416639032020     14.488731828562496      7.516581822106875
77     2     17.373613613753470     14.488731828562496      7.516581822106875
78     2     13.512810588474920     14.488731828562495      7.516581822106875
79     2      9.652007563196371     14.488731828562495      7.516581822106875
80     2     25.095219664310569     14.488731828562495      7.516581822106875
81     2     19.304015126392745     11.145178329663459      7.516581822106875
82     2     15.443212101114195     11.145178329663459      7.516581822106875
83     2     11.582409075835645     11.145178329663457      7.516581822106875
84     2      7.721606050557096     11.145178329663457      7.516581822106875
85     2     23.164818151671295     11.145178329663455      7.516581822106875
86     2     17.373613613753470      7.801624830764419      7.516581822106875
87     2     13.512810588474922      7.801624830764419      7.516581822106875
88     2      9.652007563196372      7.801624830764418      7.516581822106875
89     2      5.791204537917821      7.801624830764418      7.516581822106875
90     2     21.234416639032020      7.801624830764418      7.516581822106875
91     2     15.443212101114197      4.458071331865382      7.516581822106875
92     2     11.582409075835647      4.458071331865382      7.516581822106875
93     2      7.721606050557098      4.458071331865382      7.516581822106875
94     2      3.860803025278546      4.458071331865382      7.516581822106875
95     2     19.304015126392745      4.458071331865380      7.516581822106875
96     2     13.512810588474922      1.114517832966346      7.516581822106875
97     2      9.652007563196372      1.114517832966346      7.516581822106875
98     2      5.791204537917821      1.114517832966346      7.516581822106875
99     2      1.930401512639271      1.114517832966346      7.516581822106875
100    2     17.373613613753474      1.114517832966344      7.516581822106875
101    2     23.164687544767506     13.374139893434599      8.063992302087108
102    2     19.304015300135859     13.374674453763278      8.398790068254257
103    2     15.443342741297057     13.374139932485967      8.063991048555636
104    2     11.582814042907497     13.352170837634192      8.347029097875394
105    2      7.721200802712131     13.352170765672819      8.347029269391331
106    2     21.234814007778347     10.030432839865718      8.398789292039563
107    2     17.373216455251306     10.030432760632387      8.398789168178523
108    2     13.495679488160574     10.059348069060233      8.378863724455945
109    2      9.652007462368756     10.033041547396914      8.047818836370555
110    2      5.808335599102855     10.059348335251432      8.378863934301869
111    2     19.304015176851586      6.687259293368215      8.063991163840296
112    2     15.459489785370787      6.657929473735761      8.378863503236087
113    2     11.593598941094596      6.693568921012766      8.398241872329780
114    2      7.710416148494853      6.693569005649434      8.398241857251953
115    2      3.844525337416233      6.657929609791304      8.378863521463300
116    2     17.354724544748120      3.354928483447819      8.347029127035320
117    2     13.514871512363142      3.342365208769070      8.047818835721287
118    2      9.652007618092203      3.330634307360508      8.398242433930909
119    2      5.789143615862788      3.342365326256422      8.047818370268535
120    2      1.949290476446303      3.354928489085791      8.347029083380912
121    2     15.423918220085207      0.010673528239247      8.347029903471777
122    2     11.615817569781202      0.000494590818184      8.378864718034814
123    2      7.688197883603402      0.000494686651942      8.378864526419733
124    2      3.880096655883004      0.010673641490381      8.347029688303673
125    2     -0.000000120310961      0.000002184435619      8.569479014014874
126    2     23.118577578322729     13.347517259849862     10.337174469163328
127    2     19.304015332971591     13.353389681409231     10.842465309781664
128    2     15.489452778397990     13.347517215681696     10.337173380113766
129    2     11.913506410584937     12.818095656918347     10.672459887852712
130    2      7.390508512918101     12.818095663560932     10.672460039262507
131    2     21.216381107045009     10.041075991870386     10.842463741883233
132    2     17.391649227306047     10.041075800443897     10.842463479689085
133    2     13.151291445291326     10.678265873210410     10.704731783835758
134    2      9.652007616566088      9.976674935910893     10.311926217875994
135    2      6.152723591444748     10.678266123235886     10.704732008432746
136    2     19.304015140095071      6.740503712616858     10.337172119918081
137    2     15.823296161829987      6.050222525080719     10.704730986751963
138    2     11.565540769875376      6.677367810956580     10.834229610344480
139    2      7.738474551981246      6.677367825438347     10.834229585920218
140    2      3.480718849775051      6.050222540839845     10.704731004349165
141    2     17.057546907456086      3.908353201095068     10.672459222122612
142    2     13.466058068907058      3.370548680027787     10.311925504248698
143    2      9.652007673467576      3.363033302343240     10.834230705564206
144    2      5.837957089307557      3.370548636763679     10.311925258771417
145    2      2.246468034701470      3.908353118452748     10.672459220344033
146    2     14.796051114917265     -0.008675556521748     10.672461450227997
147    2     12.324008715317538     -0.010716468984666     10.704733841198950
148    2      6.980006539038619     -0.010716373617494     10.704733634210877
149    2      4.507963752091740     -0.008675495734371     10.672461297047484
150    2     21.380259582247948     14.479967709615979     11.506628942330893
151    2     17.227771341157300     14.479967934090562     11.506628758374362
152    2     13.656879342723663     14.405553696328072     11.495344358784589
153    2     24.951150071637578     14.405553310393719     11.495344554180253
154    2      9.652007575950442     12.093737144051465     11.455835033904931
155    2     19.304015058535612     11.145177272700669     11.911000118758741
156    2     15.377880035359698     11.275861374279179     11.506629237007475
157    2     11.505125825206685      9.045559790422351     11.474130570708212
158    2      7.798889490599682      9.045559949480822     11.474130514645932
159    2     23.230150210304178     11.275862133241818     11.506629449938343
160    2     17.454123428044639      7.679704047999932     11.506626863808703
161    2     13.586246591286375      5.440954787792042     11.474130675880227
162    2      9.652007637364527      5.572592495824864     11.903168813047088
163    2      5.717768566972408      5.440954896678381     11.474130758712517
164    2     21.153906693626844      7.679704143217918     11.506626892779604
165    2     15.299484795950834      2.312021042548725     11.455834484662656
166    2     11.733129266778523      2.231262319662686     11.474130527800687
167    2      7.570886202292605      2.231262208329010     11.474130666688801
168    2      4.004529929126518      2.312020796113550     11.455834590979610
169    2     19.304015041400209      4.624429079452681     11.495342911978401
170    2      5.784886280233996      3.339908321808711     12.867859069968496
171    2     13.519128854218295      3.339908547745615     12.867858451557407
172    2      9.652007762898117     10.037955530705077     12.867858469491651
173    2     19.304015065430892      6.684291989584401     12.905806830348114
174    2     15.440771777918613     13.375623648161337     12.905812446203493
175    2     23.167258459216015     13.375623709520308     12.905811654206488
0.000000000000000      0.000000000000000      0.000000000000000
19.304015126392748      0.000000000000000      0.000000000000000
9.652007563196374     16.717767494495188      0.000000000000000
0.000000000000000      0.000000000000000     37.821246761657591
}
Driver = ConjugateGradient {
  MaxForceComponent = 1E-4
  MaxSteps = 0
  LatticeOpt = No
  MovedAtoms = "1:-1"
  OutputPrefix = "geo_end"
  AppendGeometries = No
  ConvergentForcesOnly = Yes
  Constraints = {}
}
Hamiltonian = DFTB {
  Charge = 0
  EwaldParameter = 0.1
  Filling = Fermi {
    Temperature = 0.001
    IndependentKFilling = No
  }
  KPointsAndWeights = {
-0.33333333 -0.33333333  0.         1.0
-0.33333333  0.          0.         1.0
-0.33333333  0.33333333  0.         1.0
0.         -0.33333333  0.         1.0
0.  0.  0. 1.0
0.          0.33333333  0.         1.0
0.33333333 -0.33333333  0.         1.0
0.33333333  0.          0.         1.0
0.33333333  0.33333333  0.         1.0
  }
  MaxAngularMomentum = {
    H = "s"
    Si = "p"
  }
  MaxSCCIterations = 100
  SCC = YES
  SlaterKosterFiles = Type2FileNames {
    Prefix = /user/panosetti/data/progs/DFTB/parameters/pbc/pbc-0-3/
    Separator = "-"
    Suffix = ".skf"
    LowerCaseTypeName = No
  }
  PolynomialRepulsive = {}
  OldRepulsiveSum = No
  OrbitalResolvedSCC = No
  OldSKInterpolation = No
  ReadInitialCharges = No
  InitialCharges = {}
  SCCTolerance = 1.000000000000000E-005
  Mixer = Broyden {
    MixingParameter = 0.200000000000000
    CachedIterations = -1
    InverseJacobiWeight = 1.000000000000000E-002
    MinimalWeight = 1.00000000000000
    MaximalWeight = 100000.000000000
    WeightFactor = 1.000000000000000E-002
  }
  ElectricField = {}
  DampXH = No
  SpinPolarisation = {}
  Eigensolver = DivideAndConquer {}
  Dispersion = {}
  ThirdOrder = No
  ThirdOrderFull = No
}
Options = {
  WriteResultsTag = Yes
  WriteEigenvectors = No
  WriteAutotestTag = No
  WriteDetailedXML = No
  WriteDetailedOut = Yes
  WriteBandOut = Yes
  AtomResolvedEnergies = No
  RandomSeed = 0
  WriteHS = No
  WriteRealHS = No
  MinimiseMemoryUsage = No
  ShowFoldedCoords = No
}
ParserOptions = {
  ParserVersion = 4
  WriteHSDInput = Yes
  WriteXMLInput = No
  StopAfterParsing = No
  IgnoreUnprocessedNodes = No
}
Analysis = {
  ProjectStates = {}
}
Parallel = {
  RowBlockSize = 32
  ColumnBlockSize = 32
  Groups = 1
}
