Geometry = GenFormat {
61  S
H    Si
1      1     11.582409075835649      8.907517086928033      2.862527979819835
2      1      7.724723971924696      8.914341632319006      2.861243912897038
3      1     15.440094179746591      8.914341632318980      2.861243912897037
4      1      9.659476714473122      5.576900568467640      2.862527975690561
5      1      5.791204537917821      5.551473002909720      2.861917108241919
6      1     13.505341437198178      5.576900568467638      2.862527975690561
7      1      7.703319654093625      2.239592471123017      2.861917087105262
8      1      3.879089421742060      2.239592471123010      2.861917087105271
9      1     11.582409075835658      2.232635125267915      2.861243909169148
10     2     11.582409075835647      8.916142663730767      4.364249352331518
11     2      7.721606050557098      8.916142663730767      4.364249352331518
12     2     15.443212101114197      8.916142663730765      4.364249352331518
13     2      9.652007563196372      5.572589164831729      4.364249352331518
14     2      5.791204537917823      5.572589164831729      4.364249352331518
15     2     13.512810588474922      5.572589164831728      4.364249352331518
16     2      7.721606050557098      2.229035665932691      4.364249352331518
17     2      3.860803025278549      2.229035665932691      4.364249352331518
18     2     11.582409075835647      2.229035665932690      4.364249352331518
19     2      9.652007563196372      7.801624830764421      5.152332469775356
20     2      5.791204537917823      7.801624830764420      5.152332469775356
21     2     13.512810588474922      7.801624830764420      5.152332469775356
22     2      7.721606050557098      4.458071331865383      5.152332469775356
23     2      3.860803025278549      4.458071331865383      5.152332469775356
24     2     11.582409075835647      4.458071331865382      5.152332469775356
25     2      5.791204537917824      1.114517832966344      5.152332469775356
26     2      1.930401512639275      1.114517832966344      5.152332469775356
27     2      9.652007563196374      1.114517832966343      5.152332469775356
28     2      9.652007563196372      7.801624830764421      7.516581822106875
29     2      5.791204537917823      7.801624830764420      7.516581822106875
30     2     13.512810588474922      7.801624830764420      7.516581822106875
31     2      7.721606050557098      4.458071331865383      7.516581822106875
32     2      3.860803025278549      4.458071331865383      7.516581822106875
33     2     11.582409075835647      4.458071331865382      7.516581822106875
34     2      5.791204537917824      1.114517832966344      7.516581822106875
35     2      1.930401512639275      1.114517832966344      7.516581822106875
36     2      9.652007563196374      1.114517832966343      7.516581822106875
37     2     11.582409075835651      6.687108415737540      8.074204360397404
38     2      7.725082329342803      6.661406920522652      8.357603301958628
39     2      3.857326746492824      6.661406920522641      8.357603301958649
40     2      9.631487163822472      3.359416404821394      8.357603497443016
41     2      5.791204537917824      3.343554959727419      8.047320294598123
42     2      1.950921912013164      3.359416404821389      8.357603497443012
43     2      7.697609731210179      0.009842221320407      8.357604047621564
44     2      3.884799344625496      0.009842221320383      8.357604047621546
45     2      0.000000000000018      0.000002031979433      8.543546958432048
46     2     11.582409075835631      6.687107817092542     10.354850378771888
47     2      8.069449895473250      6.102092330761801     10.686889982310241
48     2      3.512959180362428      6.102092330761803     10.686889982310257
49     2      9.319288387733621      3.937303725380411     10.686890135445333
50     2      5.791204537917840      3.343556286283189     10.319649712762622
51     2      2.263120688102047      3.937303725380421     10.686890135445362
52     2      7.041046920375977     -0.008730469126902     10.686891531522772
53     2      4.541362155459637     -0.008730469126944     10.686891531522772
54     2      9.775040624374725      7.730591379940819     11.532303699829376
55     2     13.389777527296634      7.730591379940780     11.532303699829351
56     2      5.791204537917831      5.425448855939901     11.487602217189847
57     2      7.594174601039589      2.302611955416865     11.487602118649162
58     2      3.988234474796086      2.302611955416884     11.487602118649102
59     2     11.582409075835667      4.600136251500159     11.532304007178912
60     2      5.791204537917806      3.343555839570270     12.881542866213035
61     2     11.582409075835658      6.687108165209480     12.924962060845399
0.000000000000000      0.000000000000000      0.000000000000000
11.582409075835649      0.000000000000000      0.000000000000000
5.791204537917825     10.030660496697113      0.000000000000000
0.000000000000000      0.000000000000000     37.821246761657591
}
Driver = ConjugateGradient {
  MaxForceComponent = 1E-4
  MaxSteps = 0
  LatticeOpt = No
  MovedAtoms = "1:-1"
  OutputPrefix = "geo_end"
  AppendGeometries = No
  ConvergentForcesOnly = Yes
  Constraints = {}
}
Hamiltonian = DFTB {
  Charge = 0
  EwaldParameter = 0.05
  Filling = Fermi {
    Temperature = 0.0001
    IndependentKFilling = No
  }
  KPointsAndWeights = {
-0.4 -0.4  0.  1.0
-0.4 -0.2  0.  1.0
0.  -0.4  0.  1.0
0.  -0.2  0.  1.0
0.  0.  0. 1.0
0.   0.2  0.  1.0
0.   0.4  0.  1.0
0.2 -0.4  0.  1.0
0.2 -0.2  0.  1.0
0.2  0.   0.  1.0
0.2  0.2  0.  1.0
0.2  0.4  0.  1.0
-0.4  0.   0.  1.0
0.4 -0.4  0.  1.0
0.4 -0.2  0.  1.0
0.4  0.   0.  1.0
0.4  0.2  0.  1.0
0.4  0.4  0.  1.0
-0.4  0.2  0.  1.0
-0.4  0.4  0.  1.0
-0.2 -0.4  0.  1.0
-0.2 -0.2  0.  1.0
-0.2  0.   0.  1.0
-0.2  0.2  0.  1.0
-0.2  0.4  0.  1.0
  }
  MaxAngularMomentum = {
    H = "s"
    Si = "p"
  }
  MaxSCCIterations = 100
  SCC = YES
  SlaterKosterFiles = Type2FileNames {
    Prefix = /user/panosetti/data/progs/DFTB/parameters/pbc/pbc-0-3/
    Separator = "-"
    Suffix = ".skf"
    LowerCaseTypeName = No
  }
  PolynomialRepulsive = {}
  OldRepulsiveSum = No
  OrbitalResolvedSCC = No
  OldSKInterpolation = No
  ReadInitialCharges = No
  InitialCharges = {}
  SCCTolerance = 1.000000000000000E-005
  Mixer = Broyden {
    MixingParameter = 0.200000000000000
    CachedIterations = -1
    InverseJacobiWeight = 1.000000000000000E-002
    MinimalWeight = 1.00000000000000
    MaximalWeight = 100000.000000000
    WeightFactor = 1.000000000000000E-002
  }
  ElectricField = {}
  DampXH = No
  SpinPolarisation = {}
  Eigensolver = DivideAndConquer {}
  Dispersion = {}
  ThirdOrder = No
  ThirdOrderFull = No
}
Options = {
  WriteResultsTag = Yes
  WriteEigenvectors = No
  WriteAutotestTag = No
  WriteDetailedXML = No
  WriteDetailedOut = Yes
  WriteBandOut = Yes
  AtomResolvedEnergies = No
  RandomSeed = 0
  WriteHS = No
  WriteRealHS = No
  MinimiseMemoryUsage = No
  ShowFoldedCoords = No
}
ParserOptions = {
  ParserVersion = 4
  WriteHSDInput = Yes
  WriteXMLInput = No
  StopAfterParsing = No
  IgnoreUnprocessedNodes = No
}
Analysis = {
  ProjectStates = {}
}
Parallel = {
  RowBlockSize = 32
  ColumnBlockSize = 32
  Groups = 1
}
