Geometry = GenFormat {
61  S
H    Si
1      1     11.582409075835647      8.906309322142173      2.861931711395688
2      1      7.718508045882461      8.917930368849040      2.861259247486378
3      1     15.446310105788838      8.917930368849031      2.861259247486380
4      1      9.660522672401900      5.577504422577177      2.861931704475178
5      1      5.791204537917817      5.561949772975050      2.861407557836226
6      1     13.504295479269409      5.577504422577179      2.861931704475180
7      1      7.712392852791186      2.234353940465613      2.861407546699756
8      1      3.870016223044479      2.234353940465590      2.861407546699758
9      1     11.582409075835635      2.225457518195746      2.861259248360396
10     2     11.582409075835647      8.916142663730767      4.364249352331518
11     2      7.721606050557098      8.916142663730767      4.364249352331518
12     2     15.443212101114197      8.916142663730765      4.364249352331518
13     2      9.652007563196372      5.572589164831729      4.364249352331518
14     2      5.791204537917823      5.572589164831729      4.364249352331518
15     2     13.512810588474922      5.572589164831728      4.364249352331518
16     2      7.721606050557098      2.229035665932691      4.364249352331518
17     2      3.860803025278549      2.229035665932691      4.364249352331518
18     2     11.582409075835647      2.229035665932690      4.364249352331518
19     2      9.652007563196372      7.801624830764421      5.152332469775356
20     2      5.791204537917823      7.801624830764420      5.152332469775356
21     2     13.512810588474922      7.801624830764420      5.152332469775356
22     2      7.721606050557098      4.458071331865383      5.152332469775356
23     2      3.860803025278549      4.458071331865383      5.152332469775356
24     2     11.582409075835647      4.458071331865382      5.152332469775356
25     2      5.791204537917824      1.114517832966344      5.152332469775356
26     2      1.930401512639275      1.114517832966344      5.152332469775356
27     2      9.652007563196374      1.114517832966343      5.152332469775356
28     2      9.553865791348375      8.058271226872286      7.664550163201068
29     2      5.692048979921966      7.923277048294272      7.536557357877269
30     2     13.556053347897270      7.904837657527971      7.651627051398831
31     2      7.854126452642907      4.637487747215573      7.452227397307491
32     2      3.808492166583921      4.602795053364989      7.528195443641241
33     2     11.736487859726919      4.187554337342333      7.574407815881176
34     2      5.822186443865178      1.219179628260346      7.403669832394675
35     2      1.749502298164365      1.312914047211436      7.536621189939671
36     2      9.700715608175519      1.093664636188492      7.552704592990823
37     2     11.485696458078781      7.120551347482116      8.985646934712737
38     2      7.638354169139987      6.864920038230874      8.371020964709642
39     2      3.886706349972112      6.781630429505717      8.601374131795168
40     2      9.637464905599565      3.372319789825418      8.339418954501872
41     2      5.838918675170346      3.540340324735656      8.168619354217778
42     2      2.136815928157318      3.368498940082087      8.743346455264509
43     2      7.684219787690457      0.148649639680449      8.351181563640788
44     2      3.787324494434062      0.352231908920501      8.232887500916403
45     2      0.025080856787613      0.011309458628023      8.631305790040694
46     2     12.266416669458220     10.487109486324913     10.531897541060221
47     2      8.454016494559003      8.320647598737137     13.941582035702725
48     2      6.455188095143551      9.304268973461031     11.159506070796361
49     2     11.531006422403548      6.562727957671158      6.757033669587034
50     2      6.918837418527861      4.503065130316460     10.362236752732398
51     2      4.574500083999876      7.565438494040449     11.450865317795358
52     2      9.323525096197578      3.806317582670619     10.749880292569733
53     2      5.508583320964221      2.801252257920107     11.957815616910207
54     2     10.439968756919130     12.065579126189974      9.836361722239094
55     2     14.792132583575329     11.415140736125700     10.501429912662372
56     2      7.719751304039944      6.758361336811229     10.794617869846526
57     2      8.215174034176862      6.062183757049142     14.475922401210754
58     2      7.517448416592335      4.017643550601400     12.704049342276422
59     2     15.860835332621621      9.965004038932999     11.992081111044243
60     2      6.557796040522250      7.256573675701081     12.951407963448649
61     2     13.345239401756453     11.375642796429593     12.500470708638488
0.000000000000000      0.000000000000000      0.000000000000000
11.582409075835649      0.000000000000000      0.000000000000000
5.791204537917825     10.030660496697113      0.000000000000000
0.000000000000000      0.000000000000000     37.821246761657591
}
Driver = ConjugateGradient {
  MaxForceComponent = 1E-4
  MaxSteps = 0
  LatticeOpt = No
  MovedAtoms = "1:-1"
  OutputPrefix = "geo_end"
  AppendGeometries = No
  ConvergentForcesOnly = Yes
  Constraints = {}
}
Hamiltonian = DFTB {
  EwaldParameter = 0.5
  Filling = Fermi {
    Temperature = 0.01
    IndependentKFilling = No
  }
  KPointsAndWeights = {
-0.33333333 -0.33333333  0.         1.0
-0.33333333  0.          0.         1.0
-0.33333333  0.33333333  0.         1.0
0.         -0.33333333  0.         1.0
0. 0. 0. 1.0
0.         0.33333333 0.         1.0
0.33333333 -0.33333333  0.         1.0
0.33333333 0.         0.         1.0
0.33333333 0.33333333 0.         1.0
  }
  MaxAngularMomentum = {
    H = s
    Si = p
  }
  SCC = YES
  SlaterKosterFiles = Type2FileNames {
    Prefix = /user/panosetti/data/progs/DFTB/parameters/pbc/pbc-0-3/
    Separator = "-"
    Suffix = ".skf"
    LowerCaseTypeName = No
  }
  PolynomialRepulsive = {}
  OldRepulsiveSum = No
  OrbitalResolvedSCC = No
  OldSKInterpolation = No
  Charge = 0.000000000000000E+000
  ReadInitialCharges = No
  InitialCharges = {}
  SCCTolerance = 1.000000000000000E-005
  MaxSCCIterations = 100
  Mixer = Broyden {
    MixingParameter = 0.200000000000000
    CachedIterations = -1
    InverseJacobiWeight = 1.000000000000000E-002
    MinimalWeight = 1.00000000000000
    MaximalWeight = 100000.000000000
    WeightFactor = 1.000000000000000E-002
  }
  ElectricField = {}
  DampXH = No
  SpinPolarisation = {}
  Eigensolver = DivideAndConquer {}
  Dispersion = {}
  ManyBodyDispersion = {}
  ThirdOrder = No
  ThirdOrderFull = No
}
Options = {
  WriteResultsTag = Yes
  WriteEigenvectors = No
  WriteAutotestTag = No
  WriteDetailedXML = No
  WriteDetailedOut = Yes
  WriteBandOut = Yes
  AtomResolvedEnergies = No
  RandomSeed = 0
  WriteHS = No
  WriteRealHS = No
  WriteCPA = No
  MinimiseMemoryUsage = No
  ShowFoldedCoords = No
}
ParserOptions = {
  IgnoreUnprocessedNodes = Yes
  ParserVersion = 4
  WriteHSDInput = Yes
  WriteXMLInput = No
  StopAfterParsing = No
}
Analysis = {
  ProjectStates = {}
}
Parallel = {
  RowBlockSize = 32
  ColumnBlockSize = 32
  Groups = 1
}
