Geometry = GenFormat {
61  S
H    Si
1      1     11.582409075835647      8.906309322142173      2.861931711395688
2      1      7.718508045882461      8.917930368849040      2.861259247486378
3      1     15.446310105788838      8.917930368849031      2.861259247486380
4      1      9.660522672401900      5.577504422577177      2.861931704475178
5      1      5.791204537917817      5.561949772975050      2.861407557836226
6      1     13.504295479269409      5.577504422577179      2.861931704475180
7      1      7.712392852791186      2.234353940465613      2.861407546699756
8      1      3.870016223044479      2.234353940465590      2.861407546699758
9      1     11.582409075835635      2.225457518195746      2.861259248360396
10     2     11.582409075835647      8.916142663730767      4.364249352331518
11     2      7.721606050557098      8.916142663730767      4.364249352331518
12     2     15.443212101114197      8.916142663730765      4.364249352331518
13     2      9.652007563196372      5.572589164831729      4.364249352331518
14     2      5.791204537917823      5.572589164831729      4.364249352331518
15     2     13.512810588474922      5.572589164831728      4.364249352331518
16     2      7.721606050557098      2.229035665932691      4.364249352331518
17     2      3.860803025278549      2.229035665932691      4.364249352331518
18     2     11.582409075835647      2.229035665932690      4.364249352331518
19     2      9.652007563196372      7.801624830764421      5.152332469775356
20     2      5.791204537917823      7.801624830764420      5.152332469775356
21     2     13.512810588474922      7.801624830764420      5.152332469775356
22     2      7.721606050557098      4.458071331865383      5.152332469775356
23     2      3.860803025278549      4.458071331865383      5.152332469775356
24     2     11.582409075835647      4.458071331865382      5.152332469775356
25     2      5.791204537917824      1.114517832966344      5.152332469775356
26     2      1.930401512639275      1.114517832966344      5.152332469775356
27     2      9.652007563196374      1.114517832966343      5.152332469775356
28     2      9.707262529851596      7.843386305616942      7.454489841545560
29     2      5.768979130624921      7.844224044942394      7.548911053703866
30     2     13.585122005616604      7.736457864859487      7.520566933750350
31     2      7.696145019939509      4.550950569368043      7.573041889954853
32     2      3.820649722546753      4.549946975892186      7.568696128089583
33     2     11.695105389541068      4.393895819421656      7.506548433498995
34     2      5.722247154721223      1.107385963571664      7.436516344550370
35     2      1.879126542369385      1.171370019146420      7.608250974848395
36     2      9.548274264864482      1.151813543661103      7.492561392416937
37     2     11.580849164474330      6.657551523867959      8.309031169379876
38     2      7.781833764057322      6.842961447660232      8.470023616297153
39     2      3.908927224630838      6.768265080960622      8.611762485463995
40     2      9.664533002011522      3.394085565241646      8.238230278352409
41     2      5.729850525785926      3.305216518988506      8.313992873990243
42     2      1.980987542873460      3.365645839692196      8.580065306105256
43     2      7.618422150041336     -0.015935739053720      8.240012634382438
44     2      3.821197057837313      0.061822569585679      8.504818781746527
45     2     -0.165012634970105      0.045167207166683      8.393560087150654
46     2     13.433539224204594      9.630614049100409     10.623617274741081
47     2      8.687806800271025      8.286009873182262     10.344927542338018
48     2      4.358202848528451      9.408642717825163     10.431668670792734
49     2      8.929058322604007      6.765398832437705     12.562586197715630
50     2      8.511735407266423      4.064983698698764     10.249805245265431
51     2      5.523185889583695      7.855258185433933     13.439683316088775
52     2     10.972774491945183      5.042654821345677     10.507084846704723
53     2      4.786955943251695      1.930162320194154     10.160041405991480
54     2     12.959759459120692     12.003686663932550     10.558130002211412
55     2     16.763879571202079     10.061140799404823     12.685363620572311
56     2      6.338803998300719      8.383417669302636     11.165705671519826
57     2      8.510207253117557      5.321181782606651     14.560795970283605
58     2      7.002196612941760      5.999349734889805     11.464010123108730
59     2     11.278013993566541      6.723367504080812     12.427052235357156
60     2      7.515908265751944      7.378558940276122     14.502733894025781
61     2     11.271289563294840      7.908756670481729     10.385027822995275
0.000000000000000      0.000000000000000      0.000000000000000
11.582409075835649      0.000000000000000      0.000000000000000
5.791204537917825     10.030660496697113      0.000000000000000
0.000000000000000      0.000000000000000     37.821246761657591
}
Driver = ConjugateGradient {
  MaxForceComponent = 1E-4
  MaxSteps = 0
  LatticeOpt = No
  MovedAtoms = "1:-1"
  OutputPrefix = "geo_end"
  AppendGeometries = No
  ConvergentForcesOnly = Yes
  Constraints = {}
}
Hamiltonian = DFTB {
  EwaldParameter = 0.5
  Filling = Fermi {
    Temperature = 0.01
    IndependentKFilling = No
  }
  KPointsAndWeights = {
-0.33333333 -0.33333333  0.         1.0
-0.33333333  0.          0.         1.0
-0.33333333  0.33333333  0.         1.0
0.         -0.33333333  0.         1.0
0. 0. 0. 1.0
0.         0.33333333 0.         1.0
0.33333333 -0.33333333  0.         1.0
0.33333333 0.         0.         1.0
0.33333333 0.33333333 0.         1.0
  }
  MaxAngularMomentum = {
    H = s
    Si = p
  }
  SCC = YES
  SlaterKosterFiles = Type2FileNames {
    Prefix = /user/panosetti/data/progs/DFTB/parameters/pbc/pbc-0-3/
    Separator = "-"
    Suffix = ".skf"
    LowerCaseTypeName = No
  }
  PolynomialRepulsive = {}
  OldRepulsiveSum = No
  OrbitalResolvedSCC = No
  OldSKInterpolation = No
  Charge = 0.000000000000000E+000
  ReadInitialCharges = No
  InitialCharges = {}
  SCCTolerance = 1.000000000000000E-005
  MaxSCCIterations = 100
  Mixer = Broyden {
    MixingParameter = 0.200000000000000
    CachedIterations = -1
    InverseJacobiWeight = 1.000000000000000E-002
    MinimalWeight = 1.00000000000000
    MaximalWeight = 100000.000000000
    WeightFactor = 1.000000000000000E-002
  }
  ElectricField = {}
  DampXH = No
  SpinPolarisation = {}
  Eigensolver = DivideAndConquer {}
  Dispersion = {}
  ManyBodyDispersion = {}
  ThirdOrder = No
  ThirdOrderFull = No
}
Options = {
  WriteResultsTag = Yes
  WriteEigenvectors = No
  WriteAutotestTag = No
  WriteDetailedXML = No
  WriteDetailedOut = Yes
  WriteBandOut = Yes
  AtomResolvedEnergies = No
  RandomSeed = 0
  WriteHS = No
  WriteRealHS = No
  WriteCPA = No
  MinimiseMemoryUsage = No
  ShowFoldedCoords = No
}
ParserOptions = {
  IgnoreUnprocessedNodes = Yes
  ParserVersion = 4
  WriteHSDInput = Yes
  WriteXMLInput = No
  StopAfterParsing = No
}
Analysis = {
  ProjectStates = {}
}
Parallel = {
  RowBlockSize = 32
  ColumnBlockSize = 32
  Groups = 1
}
