Geometry = GenFormat {
61  S
H    Si
1      1     11.582409075835647      8.906309322142173      2.861931711395688
2      1      7.718508045882461      8.917930368849040      2.861259247486378
3      1     15.446310105788838      8.917930368849031      2.861259247486380
4      1      9.660522672401900      5.577504422577177      2.861931704475178
5      1      5.791204537917817      5.561949772975050      2.861407557836226
6      1     13.504295479269409      5.577504422577179      2.861931704475180
7      1      7.712392852791186      2.234353940465613      2.861407546699756
8      1      3.870016223044479      2.234353940465590      2.861407546699758
9      1     11.582409075835635      2.225457518195746      2.861259248360396
10     2     11.582409075835647      8.916142663730767      4.364249352331518
11     2      7.721606050557098      8.916142663730767      4.364249352331518
12     2     15.443212101114197      8.916142663730765      4.364249352331518
13     2      9.652007563196372      5.572589164831729      4.364249352331518
14     2      5.791204537917823      5.572589164831729      4.364249352331518
15     2     13.512810588474922      5.572589164831728      4.364249352331518
16     2      7.721606050557098      2.229035665932691      4.364249352331518
17     2      3.860803025278549      2.229035665932691      4.364249352331518
18     2     11.582409075835647      2.229035665932690      4.364249352331518
19     2      9.652007563196372      7.801624830764421      5.152332469775356
20     2      5.791204537917823      7.801624830764420      5.152332469775356
21     2     13.512810588474922      7.801624830764420      5.152332469775356
22     2      7.721606050557098      4.458071331865383      5.152332469775356
23     2      3.860803025278549      4.458071331865383      5.152332469775356
24     2     11.582409075835647      4.458071331865382      5.152332469775356
25     2      5.791204537917824      1.114517832966344      5.152332469775356
26     2      1.930401512639275      1.114517832966344      5.152332469775356
27     2      9.652007563196374      1.114517832966343      5.152332469775356
28     2      9.622890080976315      7.822479508681784      7.479600875150045
29     2      5.677924745557293      7.726251553786417      7.406964490450178
30     2     13.418036925767248      7.475295893106180      7.612433832034709
31     2      7.804824520795911      4.481265975096217      7.633190535196291
32     2      3.990426851263812      4.277848292869295      7.631888534807661
33     2     11.768103214080719      4.381898818221367      7.552460800315376
34     2      5.850653863039191      0.785530502015440      7.502493221118561
35     2      1.783614515212808      0.997814220810213      7.520647125447070
36     2      9.468443774574318      2.101683371554607      7.527145613223278
37     2     11.300282206937863      6.789947317631962      8.773454349451299
38     2      7.711062448879682      6.826192922598148      8.330770921166394
39     2      3.912061134639295      6.537881680905561      8.557329063629666
40     2      9.784961595482896      3.136118969022716     10.873257255679535
41     2      5.847973567012678      4.722469592293559      9.280385071995868
42     2      1.945120681468774      3.132316416735308      8.637785159993333
43     2      7.398546631461413     -0.510269599991208      8.973272980261012
44     2      3.772388125663098     -0.004753440708515      8.221147288678411
45     2      0.160094220462685     -0.375088090160145      9.047725299378969
46     2     13.913449726279572     11.825919574196924      9.545810851586198
47     2     10.227368432454334     10.746613330940550     10.409208708545046
48     2      4.888716457194841     10.248328926759758     16.016756081359119
49     2     11.391873530239502      8.652567258298085     10.540548557087821
50     2      7.774724106218905      7.486956291427736     10.621790721947944
51     2      5.824846927517089      8.281033698501775     16.103947737767566
52     2      9.846278921721201      4.763358916798342      9.031381769685670
53     2      5.883467546155244      2.386063959355265      9.236201542401695
54     2     13.402985861477664     11.443089425997183     13.934631689048016
55     2     17.014741545688558     12.156722471504306      9.262249989031782
56     2      7.915424741430440     10.140662975725576     10.932860019466478
57     2      9.947773733143608      7.152569007281862     11.904378410313235
58     2      5.233354126020646      7.485215235270437     10.596839242082059
59     2     15.405340977977058      9.615989255030332      7.702296296488262
60     2      8.330240405427327      8.755790881160568     12.719017722586473
61     2     14.350945626014040     10.062649448512678     15.350527452508201
0.000000000000000      0.000000000000000      0.000000000000000
11.582409075835649      0.000000000000000      0.000000000000000
5.791204537917825     10.030660496697113      0.000000000000000
0.000000000000000      0.000000000000000     37.821246761657591
}
Driver = ConjugateGradient {
  MaxForceComponent = 1E-4
  MaxSteps = 0
  LatticeOpt = No
  MovedAtoms = "1:-1"
  OutputPrefix = "geo_end"
  AppendGeometries = No
  ConvergentForcesOnly = Yes
  Constraints = {}
}
Hamiltonian = DFTB {
  EwaldParameter = 0.5
  Filling = Fermi {
    Temperature = 0.01
    IndependentKFilling = No
  }
  KPointsAndWeights = {
-0.33333333 -0.33333333  0.         1.0
-0.33333333  0.          0.         1.0
-0.33333333  0.33333333  0.         1.0
0.         -0.33333333  0.         1.0
0. 0. 0. 1.0
0.         0.33333333 0.         1.0
0.33333333 -0.33333333  0.         1.0
0.33333333 0.         0.         1.0
0.33333333 0.33333333 0.         1.0
  }
  MaxAngularMomentum = {
    H = s
    Si = p
  }
  SCC = YES
  SlaterKosterFiles = Type2FileNames {
    Prefix = /user/panosetti/data/progs/DFTB/parameters/pbc/pbc-0-3/
    Separator = "-"
    Suffix = ".skf"
    LowerCaseTypeName = No
  }
  PolynomialRepulsive = {}
  OldRepulsiveSum = No
  OrbitalResolvedSCC = No
  OldSKInterpolation = No
  Charge = 0.000000000000000E+000
  ReadInitialCharges = No
  InitialCharges = {}
  SCCTolerance = 1.000000000000000E-005
  MaxSCCIterations = 100
  Mixer = Broyden {
    MixingParameter = 0.200000000000000
    CachedIterations = -1
    InverseJacobiWeight = 1.000000000000000E-002
    MinimalWeight = 1.00000000000000
    MaximalWeight = 100000.000000000
    WeightFactor = 1.000000000000000E-002
  }
  ElectricField = {}
  DampXH = No
  SpinPolarisation = {}
  Eigensolver = DivideAndConquer {}
  Dispersion = {}
  ManyBodyDispersion = {}
  ThirdOrder = No
  ThirdOrderFull = No
}
Options = {
  WriteResultsTag = Yes
  WriteEigenvectors = No
  WriteAutotestTag = No
  WriteDetailedXML = No
  WriteDetailedOut = Yes
  WriteBandOut = Yes
  AtomResolvedEnergies = No
  RandomSeed = 0
  WriteHS = No
  WriteRealHS = No
  WriteCPA = No
  MinimiseMemoryUsage = No
  ShowFoldedCoords = No
}
ParserOptions = {
  IgnoreUnprocessedNodes = Yes
  ParserVersion = 4
  WriteHSDInput = Yes
  WriteXMLInput = No
  StopAfterParsing = No
}
Analysis = {
  ProjectStates = {}
}
Parallel = {
  RowBlockSize = 32
  ColumnBlockSize = 32
  Groups = 1
}
