Geometry = GenFormat {
61  S
H    Si
1      1     11.582409075835647      8.906309322142173      2.861931711395688
2      1      7.718508045882461      8.917930368849040      2.861259247486378
3      1     15.446310105788838      8.917930368849031      2.861259247486380
4      1      9.660522672401900      5.577504422577177      2.861931704475178
5      1      5.791204537917817      5.561949772975050      2.861407557836226
6      1     13.504295479269409      5.577504422577179      2.861931704475180
7      1      7.712392852791186      2.234353940465613      2.861407546699756
8      1      3.870016223044479      2.234353940465590      2.861407546699758
9      1     11.582409075835635      2.225457518195746      2.861259248360396
10     2     11.582409075835647      8.916142663730767      4.364249352331518
11     2      7.721606050557098      8.916142663730767      4.364249352331518
12     2     15.443212101114197      8.916142663730765      4.364249352331518
13     2      9.652007563196372      5.572589164831729      4.364249352331518
14     2      5.791204537917823      5.572589164831729      4.364249352331518
15     2     13.512810588474922      5.572589164831728      4.364249352331518
16     2      7.721606050557098      2.229035665932691      4.364249352331518
17     2      3.860803025278549      2.229035665932691      4.364249352331518
18     2     11.582409075835647      2.229035665932690      4.364249352331518
19     2      9.652007563196372      7.801624830764421      5.152332469775356
20     2      5.791204537917823      7.801624830764420      5.152332469775356
21     2     13.512810588474922      7.801624830764420      5.152332469775356
22     2      7.721606050557098      4.458071331865383      5.152332469775356
23     2      3.860803025278549      4.458071331865383      5.152332469775356
24     2     11.582409075835647      4.458071331865382      5.152332469775356
25     2      5.791204537917824      1.114517832966344      5.152332469775356
26     2      1.930401512639275      1.114517832966344      5.152332469775356
27     2      9.652007563196374      1.114517832966343      5.152332469775356
28     2      9.792230789855726      7.834334569280042      7.485743357201735
29     2      5.792793063031104      7.808188947544148      7.605087122923238
30     2     13.646081343440649      7.532100690191270      7.562847883527184
31     2      7.711614390044248      4.709486739299504      7.580045402723710
32     2      3.946760409860815      4.363172546511197      7.492500866141913
33     2     11.761539949926505      4.408033247415929      7.494963847649007
34     2      5.979438027773789      1.000899050049050      7.643149632899724
35     2      2.099947374276511      1.071987391791131      7.704611266174153
36     2      9.973949572206514      0.423617319538306      7.665613992660221
37     2     11.645790855161328      6.597103855976799      8.324928786847396
38     2      7.805247012254133      6.936093947019662      8.412458463427837
39     2      3.987636300792682      6.456935723427626      8.587596109523620
40     2      9.786696563016635      4.199918205153617      8.720396008652910
41     2      5.865705392122992      3.520788929623718      8.726498560610265
42     2      2.068948353627251      3.399682457282625      8.581951551568860
43     2      7.863693324064397     -0.430573827968985      8.584485360927367
44     2      4.075089705567666     -0.119909862957976      8.628632373898963
45     2      0.388229962384545     -0.184988259630924      8.849576471451275
46     2     12.427666884005268      8.149985581522998     12.132319155104870
47     2     10.101662657891188      8.597599415603156     10.932625575672491
48     2      2.219625690942705      6.310288014157226     12.502809468498770
49     2     10.417490552664804      5.948048709738235     10.333819254307461
50     2      5.158425308166166      4.963174509493608     10.601794294629956
51     2      1.476259975966998      4.189940002138197     12.976336034236793
52     2      8.149087065989365      2.185003433272721      7.571342780342738
53     2      7.232203636679763      1.844616320988844     10.369517523222154
54     2     13.973294795751572      9.637419606632056     11.031920559005719
55     2     17.396253708552230     12.385424280928298     13.142836060589255
56     2      8.237032339132032      7.002842164418660     10.722839307990565
57     2      9.499706872711304      2.080847909274376      9.613053870206182
58     2      2.793739341473485      5.047257970526538     10.449480706163099
59     2     11.024623878445894      4.227010978593058     11.909728403737800
60     2      6.686090740365900      5.985289819942322     12.190270131771332
61     2     13.178786023377318      8.743689072318590     14.286278793017683
0.000000000000000      0.000000000000000      0.000000000000000
11.582409075835649      0.000000000000000      0.000000000000000
5.791204537917825     10.030660496697113      0.000000000000000
0.000000000000000      0.000000000000000     37.821246761657591
}
Driver = ConjugateGradient {
  MaxForceComponent = 1E-4
  MaxSteps = 0
  LatticeOpt = No
  MovedAtoms = "1:-1"
  OutputPrefix = "geo_end"
  AppendGeometries = No
  ConvergentForcesOnly = Yes
  Constraints = {}
}
Hamiltonian = DFTB {
  EwaldParameter = 0.5
  Filling = Fermi {
    Temperature = 0.01
    IndependentKFilling = No
  }
  KPointsAndWeights = {
-0.33333333 -0.33333333  0.         1.0
-0.33333333  0.          0.         1.0
-0.33333333  0.33333333  0.         1.0
0.         -0.33333333  0.         1.0
0. 0. 0. 1.0
0.         0.33333333 0.         1.0
0.33333333 -0.33333333  0.         1.0
0.33333333 0.         0.         1.0
0.33333333 0.33333333 0.         1.0
  }
  MaxAngularMomentum = {
    H = s
    Si = p
  }
  SCC = YES
  SlaterKosterFiles = Type2FileNames {
    Prefix = /user/panosetti/data/progs/DFTB/parameters/pbc/pbc-0-3/
    Separator = "-"
    Suffix = ".skf"
    LowerCaseTypeName = No
  }
  PolynomialRepulsive = {}
  OldRepulsiveSum = No
  OrbitalResolvedSCC = No
  OldSKInterpolation = No
  Charge = 0.000000000000000E+000
  ReadInitialCharges = No
  InitialCharges = {}
  SCCTolerance = 1.000000000000000E-005
  MaxSCCIterations = 100
  Mixer = Broyden {
    MixingParameter = 0.200000000000000
    CachedIterations = -1
    InverseJacobiWeight = 1.000000000000000E-002
    MinimalWeight = 1.00000000000000
    MaximalWeight = 100000.000000000
    WeightFactor = 1.000000000000000E-002
  }
  ElectricField = {}
  DampXH = No
  SpinPolarisation = {}
  Eigensolver = DivideAndConquer {}
  Dispersion = {}
  ManyBodyDispersion = {}
  ThirdOrder = No
  ThirdOrderFull = No
}
Options = {
  WriteResultsTag = Yes
  WriteEigenvectors = No
  WriteAutotestTag = No
  WriteDetailedXML = No
  WriteDetailedOut = Yes
  WriteBandOut = Yes
  AtomResolvedEnergies = No
  RandomSeed = 0
  WriteHS = No
  WriteRealHS = No
  WriteCPA = No
  MinimiseMemoryUsage = No
  ShowFoldedCoords = No
}
ParserOptions = {
  IgnoreUnprocessedNodes = Yes
  ParserVersion = 4
  WriteHSDInput = Yes
  WriteXMLInput = No
  StopAfterParsing = No
}
Analysis = {
  ProjectStates = {}
}
Parallel = {
  RowBlockSize = 32
  ColumnBlockSize = 32
  Groups = 1
}
