Geometry = GenFormat {
61  S
H    Si
1      1     11.582409075835647      8.906309322142173      2.861931711395688
2      1      7.718508045882461      8.917930368849040      2.861259247486378
3      1     15.446310105788838      8.917930368849031      2.861259247486380
4      1      9.660522672401900      5.577504422577177      2.861931704475178
5      1      5.791204537917817      5.561949772975050      2.861407557836226
6      1     13.504295479269409      5.577504422577179      2.861931704475180
7      1      7.712392852791186      2.234353940465613      2.861407546699756
8      1      3.870016223044479      2.234353940465590      2.861407546699758
9      1     11.582409075835635      2.225457518195746      2.861259248360396
10     2     11.582409075835647      8.916142663730767      4.364249352331518
11     2      7.721606050557098      8.916142663730767      4.364249352331518
12     2     15.443212101114197      8.916142663730765      4.364249352331518
13     2      9.652007563196372      5.572589164831729      4.364249352331518
14     2      5.791204537917823      5.572589164831729      4.364249352331518
15     2     13.512810588474922      5.572589164831728      4.364249352331518
16     2      7.721606050557098      2.229035665932691      4.364249352331518
17     2      3.860803025278549      2.229035665932691      4.364249352331518
18     2     11.582409075835647      2.229035665932690      4.364249352331518
19     2      9.652007563196372      7.801624830764421      5.152332469775356
20     2      5.791204537917823      7.801624830764420      5.152332469775356
21     2     13.512810588474922      7.801624830764420      5.152332469775356
22     2      7.721606050557098      4.458071331865383      5.152332469775356
23     2      3.860803025278549      4.458071331865383      5.152332469775356
24     2     11.582409075835647      4.458071331865382      5.152332469775356
25     2      5.791204537917824      1.114517832966344      5.152332469775356
26     2      1.930401512639275      1.114517832966344      5.152332469775356
27     2      9.652007563196374      1.114517832966343      5.152332469775356
28     2      9.638323447307640      7.851832091098503      7.506917903491664
29     2      5.870249329249244      7.879268683128047      7.643802035778059
30     2     13.547862067421589      7.870259655181854      7.495645493173086
31     2      7.795153020965168      4.566715736931131      7.509732644468087
32     2      3.871529778116938      4.513066949779789      7.440191050120109
33     2     11.628171152122441      4.515543873975065      7.477526448971153
34     2      5.797575657651115      1.144493873657165      7.450832010517712
35     2      1.923757623804540      1.103123032102836      7.546892214556287
36     2      9.730758396538652      1.163115471437341      7.597536356335687
37     2     11.596462957936284      6.755469625063817      8.169126353250821
38     2      7.815615810137570      6.738403831150921      8.454968635357188
39     2      3.886714312274708      6.709591223523080      8.272079594966554
40     2      9.709460060477582      3.453378921365036      8.378343846000568
41     2      5.829104209224990      3.401836220321059      8.114680574108318
42     2      1.974436090373909      3.380431525745519      8.250302273019260
43     2      7.719956119512830      0.067761713296612      8.314671488623071
44     2      3.916397214437989      0.036510650101902      8.353215568298804
45     2      0.046926418038056      0.066455332862026      8.609480776224062
46     2     11.624399731382924      6.732908352944365     10.482555051690877
47     2      8.221546603938696      6.165956624177067     10.720939839291596
48     2      3.640641026967255      5.938897757243518     10.472092306169129
49     2      9.699595381962659      4.160202752043852     10.717627489109166
50     2      6.093092545861303      2.901540097008505     10.379044815411406
51     2      2.385662132386058      3.846586699617324     10.564851610128207
52     2      7.217770833063236     -0.116728984349253     10.661579281634761
53     2      4.626018700076040     -0.060871146841057     10.703157185692584
54     2      9.912525945692398      7.753769327902520     11.824360717010974
55     2     13.608740081216620      7.705244685768082     11.453883354527338
56     2      5.911071259948031      5.213404134752936     11.090847551291757
57     2      8.360120738689471      2.055734653363666     10.727020707795772
58     2      4.094434705368032      2.202803265211209     11.638298093762078
59     2     11.921644995464806      4.650899800976470     11.722946480969700
60     2      5.720075238894672      3.613101589419947     12.791739993160398
61     2     12.119135865587570      6.678003731736186     13.115900405216705
0.000000000000000      0.000000000000000      0.000000000000000
11.582409075835649      0.000000000000000      0.000000000000000
5.791204537917825     10.030660496697113      0.000000000000000
0.000000000000000      0.000000000000000     37.821246761657591
}
Driver = ConjugateGradient {
  MaxForceComponent = 1E-4
  MaxSteps = 0
  LatticeOpt = No
  MovedAtoms = "1:-1"
  OutputPrefix = "geo_end"
  AppendGeometries = No
  ConvergentForcesOnly = Yes
  Constraints = {}
}
Hamiltonian = DFTB {
  EwaldParameter = 0.5
  Filling = Fermi {
    Temperature = 0.01
    IndependentKFilling = No
  }
  KPointsAndWeights = {
-0.33333333 -0.33333333  0.         1.0
-0.33333333  0.          0.         1.0
-0.33333333  0.33333333  0.         1.0
0.         -0.33333333  0.         1.0
0. 0. 0. 1.0
0.         0.33333333 0.         1.0
0.33333333 -0.33333333  0.         1.0
0.33333333 0.         0.         1.0
0.33333333 0.33333333 0.         1.0
  }
  MaxAngularMomentum = {
    H = s
    Si = p
  }
  SCC = YES
  SlaterKosterFiles = Type2FileNames {
    Prefix = /user/panosetti/data/progs/DFTB/parameters/pbc/pbc-0-3/
    Separator = "-"
    Suffix = ".skf"
    LowerCaseTypeName = No
  }
  PolynomialRepulsive = {}
  OldRepulsiveSum = No
  OrbitalResolvedSCC = No
  OldSKInterpolation = No
  Charge = 0.000000000000000E+000
  ReadInitialCharges = No
  InitialCharges = {}
  SCCTolerance = 1.000000000000000E-005
  MaxSCCIterations = 100
  Mixer = Broyden {
    MixingParameter = 0.200000000000000
    CachedIterations = -1
    InverseJacobiWeight = 1.000000000000000E-002
    MinimalWeight = 1.00000000000000
    MaximalWeight = 100000.000000000
    WeightFactor = 1.000000000000000E-002
  }
  ElectricField = {}
  DampXH = No
  SpinPolarisation = {}
  Eigensolver = DivideAndConquer {}
  Dispersion = {}
  ManyBodyDispersion = {}
  ThirdOrder = No
  ThirdOrderFull = No
}
Options = {
  WriteResultsTag = Yes
  WriteEigenvectors = No
  WriteAutotestTag = No
  WriteDetailedXML = No
  WriteDetailedOut = Yes
  WriteBandOut = Yes
  AtomResolvedEnergies = No
  RandomSeed = 0
  WriteHS = No
  WriteRealHS = No
  WriteCPA = No
  MinimiseMemoryUsage = No
  ShowFoldedCoords = No
}
ParserOptions = {
  IgnoreUnprocessedNodes = Yes
  ParserVersion = 4
  WriteHSDInput = Yes
  WriteXMLInput = No
  StopAfterParsing = No
}
Analysis = {
  ProjectStates = {}
}
Parallel = {
  RowBlockSize = 32
  ColumnBlockSize = 32
  Groups = 1
}
