Geometry = GenFormat {
61  S
H    Si
1      1     11.582409075835647      8.906309322142173      2.861931711395688
2      1      7.718508045882461      8.917930368849040      2.861259247486378
3      1     15.446310105788838      8.917930368849031      2.861259247486380
4      1      9.660522672401900      5.577504422577177      2.861931704475178
5      1      5.791204537917817      5.561949772975050      2.861407557836226
6      1     13.504295479269409      5.577504422577179      2.861931704475180
7      1      7.712392852791186      2.234353940465613      2.861407546699756
8      1      3.870016223044479      2.234353940465590      2.861407546699758
9      1     11.582409075835635      2.225457518195746      2.861259248360396
10     2     11.582409075835647      8.916142663730767      4.364249352331518
11     2      7.721606050557098      8.916142663730767      4.364249352331518
12     2     15.443212101114197      8.916142663730765      4.364249352331518
13     2      9.652007563196372      5.572589164831729      4.364249352331518
14     2      5.791204537917823      5.572589164831729      4.364249352331518
15     2     13.512810588474922      5.572589164831728      4.364249352331518
16     2      7.721606050557098      2.229035665932691      4.364249352331518
17     2      3.860803025278549      2.229035665932691      4.364249352331518
18     2     11.582409075835647      2.229035665932690      4.364249352331518
19     2      9.652007563196372      7.801624830764421      5.152332469775356
20     2      5.791204537917823      7.801624830764420      5.152332469775356
21     2     13.512810588474922      7.801624830764420      5.152332469775356
22     2      7.721606050557098      4.458071331865383      5.152332469775356
23     2      3.860803025278549      4.458071331865383      5.152332469775356
24     2     11.582409075835647      4.458071331865382      5.152332469775356
25     2      5.791204537917824      1.114517832966344      5.152332469775356
26     2      1.930401512639275      1.114517832966344      5.152332469775356
27     2      9.652007563196374      1.114517832966343      5.152332469775356
28     2      9.840058308903421      7.933670419803442      7.473717828993150
29     2      5.864180137357376      7.847701824989601      7.541009483908086
30     2     13.725055652281620      7.812476742432196      7.510550761536488
31     2      7.843947915880570      4.497185264137208      7.565304954293367
32     2      3.925970188146163      4.508632202453916      7.645294911695460
33     2     11.726544574037348      4.590207496555829      7.516780706627760
34     2      6.043476667947914      1.280051336520558      7.510154659869574
35     2      1.990715002343692      1.316007810169845      7.480199800599686
36     2      9.868456003291630      1.172738428157176      7.543200779992575
37     2     11.776406879783030      6.836592906802750      8.379912278842331
38     2      7.913929470074223      6.796250795155507      8.176737075122620
39     2      4.012710270326517      6.714871850697366      8.636102840123014
40     2      9.823481822487318      3.413225466615695      8.369107559782043
41     2      5.920377530415694      3.479649148634729      8.563324536563840
42     2      1.944713669770834      3.455142423998598      8.591821570274094
43     2      7.943707312789810      0.024022719942694      8.216321119589900
44     2      4.003683568090301      0.187591375247109      8.134947280780931
45     2      0.278078798846192      0.032553238908175      8.449999291116123
46     2     14.049685831477177      9.888291644410483     10.485299461703907
47     2      7.896637293865379      9.775838150543310     10.508502765769890
48     2      3.984357591659676      8.996136334487096     12.007851743575205
49     2     11.212153371304053      3.274803340919421     10.370447387285473
50     2      5.965573488380219      5.822151757802312     10.303676619638285
51     2      3.806880302332567      6.723048810027409     11.189042006577315
52     2      7.923486921320502      1.962553483812240     11.604547090343500
53     2      5.806451505821337      2.866466333200739     10.953587408423608
54     2     10.262355038258635     10.682727645872589     10.549195013102187
55     2     13.579691289635653     10.042882380137458     13.119058517354487
56     2      7.763766485290751      7.372615368707414     10.506492904670450
57     2      9.141533924346339      3.981749288003678     11.117794996096892
58     2      5.729769003395385      4.915239603779806     12.506948170085277
59     2     12.848611455763402      7.276590616048368     10.692950294810140
60     2      8.082753946290183      5.772908398258662     12.269773552607665
61     2     11.918885766368319      9.225791090768961     11.587941126100322
0.000000000000000      0.000000000000000      0.000000000000000
11.582409075835649      0.000000000000000      0.000000000000000
5.791204537917825     10.030660496697113      0.000000000000000
0.000000000000000      0.000000000000000     37.821246761657591
}
Driver = ConjugateGradient {
  MaxForceComponent = 1E-4
  MaxSteps = 0
  LatticeOpt = No
  MovedAtoms = "1:-1"
  OutputPrefix = "geo_end"
  AppendGeometries = No
  ConvergentForcesOnly = Yes
  Constraints = {}
}
Hamiltonian = DFTB {
  EwaldParameter = 0.5
  Filling = Fermi {
    Temperature = 0.01
    IndependentKFilling = No
  }
  KPointsAndWeights = {
-0.33333333 -0.33333333  0.         1.0
-0.33333333  0.          0.         1.0
-0.33333333  0.33333333  0.         1.0
0.         -0.33333333  0.         1.0
0. 0. 0. 1.0
0.         0.33333333 0.         1.0
0.33333333 -0.33333333  0.         1.0
0.33333333 0.         0.         1.0
0.33333333 0.33333333 0.         1.0
  }
  MaxAngularMomentum = {
    H = s
    Si = p
  }
  SCC = YES
  SlaterKosterFiles = Type2FileNames {
    Prefix = /user/panosetti/data/progs/DFTB/parameters/pbc/pbc-0-3/
    Separator = "-"
    Suffix = ".skf"
    LowerCaseTypeName = No
  }
  PolynomialRepulsive = {}
  OldRepulsiveSum = No
  OrbitalResolvedSCC = No
  OldSKInterpolation = No
  Charge = 0.000000000000000E+000
  ReadInitialCharges = No
  InitialCharges = {}
  SCCTolerance = 1.000000000000000E-005
  MaxSCCIterations = 100
  Mixer = Broyden {
    MixingParameter = 0.200000000000000
    CachedIterations = -1
    InverseJacobiWeight = 1.000000000000000E-002
    MinimalWeight = 1.00000000000000
    MaximalWeight = 100000.000000000
    WeightFactor = 1.000000000000000E-002
  }
  ElectricField = {}
  DampXH = No
  SpinPolarisation = {}
  Eigensolver = DivideAndConquer {}
  Dispersion = {}
  ManyBodyDispersion = {}
  ThirdOrder = No
  ThirdOrderFull = No
}
Options = {
  WriteResultsTag = Yes
  WriteEigenvectors = No
  WriteAutotestTag = No
  WriteDetailedXML = No
  WriteDetailedOut = Yes
  WriteBandOut = Yes
  AtomResolvedEnergies = No
  RandomSeed = 0
  WriteHS = No
  WriteRealHS = No
  WriteCPA = No
  MinimiseMemoryUsage = No
  ShowFoldedCoords = No
}
ParserOptions = {
  IgnoreUnprocessedNodes = Yes
  ParserVersion = 4
  WriteHSDInput = Yes
  WriteXMLInput = No
  StopAfterParsing = No
}
Analysis = {
  ProjectStates = {}
}
Parallel = {
  RowBlockSize = 32
  ColumnBlockSize = 32
  Groups = 1
}
