Geometry = GenFormat { 
    <<< "geo_end.gen" 
} 
 
Driver = ConjugateGradient{ 
   MaxForceComponent = 1E-4 
   MaxSteps = 0 
   } 
Hamiltonian = DFTB{ 
   Charge = 0 
   Filling = Fermi{ 
      Temperature = 0.001 
   } 
   KPointsAndWeights = { 
      -0.33333333 -0.33333333  0.         1.0 
      -0.33333333  0.          0.         1.0 
      -0.33333333  0.33333333  0.         1.0 
       0.         -0.33333333  0.         1.0 
       0.  0.  0. 1.0 
       0.          0.33333333  0.         1.0 
       0.33333333 -0.33333333  0.         1.0 
       0.33333333  0.          0.         1.0 
       0.33333333  0.33333333  0.         1.0 
   } 
   MaxAngularMomentum = { 
      H = "s" 
      Si = "p" 
   } 
   MaxSCCIterations = 100 
   SCC = YES 
   SlaterKosterFiles = Type2FileNames{ 
      Prefix = /user/panosetti/data/progs/DFTB/parameters/pbc/pbc-0-3/ 
      Separator = "-" 
      Suffix = ".skf" 
   } 
} 
Options { 
   WriteResultsTag = Yes  
} 
