Geometry = GenFormat {
61  S
H    Si
1      1     11.582409075835647      8.906309322142173      2.861931711395688
2      1      7.718508045882461      8.917930368849040      2.861259247486378
3      1     15.446310105788838      8.917930368849031      2.861259247486380
4      1      9.660522672401900      5.577504422577177      2.861931704475178
5      1      5.791204537917817      5.561949772975050      2.861407557836226
6      1     13.504295479269409      5.577504422577179      2.861931704475180
7      1      7.712392852791186      2.234353940465613      2.861407546699756
8      1      3.870016223044479      2.234353940465590      2.861407546699758
9      1     11.582409075835635      2.225457518195746      2.861259248360396
10     2     11.582409075835647      8.916142663730767      4.364249352331518
11     2      7.721606050557098      8.916142663730767      4.364249352331518
12     2     15.443212101114197      8.916142663730765      4.364249352331518
13     2      9.652007563196372      5.572589164831729      4.364249352331518
14     2      5.791204537917823      5.572589164831729      4.364249352331518
15     2     13.512810588474922      5.572589164831728      4.364249352331518
16     2      7.721606050557098      2.229035665932691      4.364249352331518
17     2      3.860803025278549      2.229035665932691      4.364249352331518
18     2     11.582409075835647      2.229035665932690      4.364249352331518
19     2      9.652007563196372      7.801624830764421      5.152332469775356
20     2      5.791204537917823      7.801624830764420      5.152332469775356
21     2     13.512810588474922      7.801624830764420      5.152332469775356
22     2      7.721606050557098      4.458071331865383      5.152332469775356
23     2      3.860803025278549      4.458071331865383      5.152332469775356
24     2     11.582409075835647      4.458071331865382      5.152332469775356
25     2      5.791204537917824      1.114517832966344      5.152332469775356
26     2      1.930401512639275      1.114517832966344      5.152332469775356
27     2      9.652007563196374      1.114517832966343      5.152332469775356
28     2      9.615273487958261      7.794920015878467      7.498562019881463
29     2      5.654159870944770      7.824361506320175      7.619430003396348
30     2     13.558776962116820      7.805807206074199      7.562896859640781
31     2      7.694043716289204      4.375322481644830      7.483331021115933
32     2      3.870452856317522      4.472142229227893      7.449435770374490
33     2     11.565440270481281      4.357972666501991      7.454864050256837
34     2      5.822375163095911      1.041853617870699      7.482678131724681
35     2      1.827811139321653      1.084238472428698      7.520640844541981
36     2      9.579462961252458      0.976948707961680      7.595339853854559
37     2     11.587823284075441      6.620330792752265      8.177218881575792
38     2      7.679899864896536      6.669405308366929      8.220457566167212
39     2      3.775612250134884      6.569943528061359      8.558346730755913
40     2      9.750743578334928      3.229438701006483      8.520312146336746
41     2      5.731051909396012      3.268578385940755      8.248064475032219
42     2      1.953372526091077      3.332550653112995      8.313552367181785
43     2      7.636651415588462     -0.057392244375456      8.590618034038984
44     2      3.825343924890609      0.037873749401216      8.209654305603864
45     2     -0.039658340126555      0.000248264514537      8.585243950100294
46     2     11.625559836116635      5.460778988744742     10.343447048113569
47     2      7.178176754039966      4.511697885257280     11.028375160691807
48     2      2.686387359719375      4.547433797404953     10.397061705698693
49     2      8.489098645700865      2.779622523398297     12.074230021566050
50     2      4.040418299300313      0.799403420201598     10.440009497094101
51     2      1.662706113272409      2.443891947901334     10.928015711438386
52     2      5.298207581717440     -1.710310178055251     10.822589773322751
53     2      3.217455356888531     -1.025646273956470     11.913673511995498
54     2      8.998154346564023      5.366867343541342      9.778653750573941
55     2     11.360253612551276      6.302039242063163     12.528006873049037
56     2      4.832437345100494      3.205221690634601     10.497463727691473
57     2      5.832538926468754      0.080978535122939     12.180282369791930
58     2      3.209434670891021      1.305930057433596     12.758360714115272
59     2     10.747674392700789      3.172603874531566     10.912831607812750
60     2      5.563350071892140      2.414716665396199     12.668061880593893
61     2      9.253264831230082      5.189117894195889     12.212147264812382
0.000000000000000      0.000000000000000      0.000000000000000
11.582409075835649      0.000000000000000      0.000000000000000
5.791204537917825     10.030660496697113      0.000000000000000
0.000000000000000      0.000000000000000     37.821246761657591
}
Driver = ConjugateGradient {
  MaxForceComponent = 1E-4
  MaxSteps = 0
  LatticeOpt = No
  MovedAtoms = "1:-1"
  OutputPrefix = "geo_end"
  AppendGeometries = No
  ConvergentForcesOnly = Yes
  Constraints = {}
}
Hamiltonian = DFTB {
  EwaldParameter = 0.5
  Filling = Fermi {
    Temperature = 0.01
    IndependentKFilling = No
  }
  KPointsAndWeights = {
-0.33333333 -0.33333333  0.         1.0
-0.33333333  0.          0.         1.0
-0.33333333  0.33333333  0.         1.0
0.         -0.33333333  0.         1.0
0. 0. 0. 1.0
0.         0.33333333 0.         1.0
0.33333333 -0.33333333  0.         1.0
0.33333333 0.         0.         1.0
0.33333333 0.33333333 0.         1.0
  }
  MaxAngularMomentum = {
    H = s
    Si = p
  }
  SCC = YES
  SlaterKosterFiles = Type2FileNames {
    Prefix = /user/panosetti/data/progs/DFTB/parameters/pbc/pbc-0-3/
    Separator = "-"
    Suffix = ".skf"
    LowerCaseTypeName = No
  }
  PolynomialRepulsive = {}
  OldRepulsiveSum = No
  OrbitalResolvedSCC = No
  OldSKInterpolation = No
  Charge = 0.000000000000000E+000
  ReadInitialCharges = No
  InitialCharges = {}
  SCCTolerance = 1.000000000000000E-005
  MaxSCCIterations = 100
  Mixer = Broyden {
    MixingParameter = 0.200000000000000
    CachedIterations = -1
    InverseJacobiWeight = 1.000000000000000E-002
    MinimalWeight = 1.00000000000000
    MaximalWeight = 100000.000000000
    WeightFactor = 1.000000000000000E-002
  }
  ElectricField = {}
  DampXH = No
  SpinPolarisation = {}
  Eigensolver = DivideAndConquer {}
  Dispersion = {}
  ManyBodyDispersion = {}
  ThirdOrder = No
  ThirdOrderFull = No
}
Options = {
  WriteResultsTag = Yes
  WriteEigenvectors = No
  WriteAutotestTag = No
  WriteDetailedXML = No
  WriteDetailedOut = Yes
  WriteBandOut = Yes
  AtomResolvedEnergies = No
  RandomSeed = 0
  WriteHS = No
  WriteRealHS = No
  WriteCPA = No
  MinimiseMemoryUsage = No
  ShowFoldedCoords = No
}
ParserOptions = {
  IgnoreUnprocessedNodes = Yes
  ParserVersion = 4
  WriteHSDInput = Yes
  WriteXMLInput = No
  StopAfterParsing = No
}
Analysis = {
  ProjectStates = {}
}
Parallel = {
  RowBlockSize = 32
  ColumnBlockSize = 32
  Groups = 1
}
