Geometry = GenFormat {
61  S
H    Si
1      1     11.582409075835647      8.906309322142173      2.861931711395688
2      1      7.718508045882461      8.917930368849040      2.861259247486378
3      1     15.446310105788838      8.917930368849031      2.861259247486380
4      1      9.660522672401900      5.577504422577177      2.861931704475178
5      1      5.791204537917817      5.561949772975050      2.861407557836226
6      1     13.504295479269409      5.577504422577179      2.861931704475180
7      1      7.712392852791186      2.234353940465613      2.861407546699756
8      1      3.870016223044479      2.234353940465590      2.861407546699758
9      1     11.582409075835635      2.225457518195746      2.861259248360396
10     2     11.582409075835647      8.916142663730767      4.364249352331518
11     2      7.721606050557098      8.916142663730767      4.364249352331518
12     2     15.443212101114197      8.916142663730765      4.364249352331518
13     2      9.652007563196372      5.572589164831729      4.364249352331518
14     2      5.791204537917823      5.572589164831729      4.364249352331518
15     2     13.512810588474922      5.572589164831728      4.364249352331518
16     2      7.721606050557098      2.229035665932691      4.364249352331518
17     2      3.860803025278549      2.229035665932691      4.364249352331518
18     2     11.582409075835647      2.229035665932690      4.364249352331518
19     2      9.652007563196372      7.801624830764421      5.152332469775356
20     2      5.791204537917823      7.801624830764420      5.152332469775356
21     2     13.512810588474922      7.801624830764420      5.152332469775356
22     2      7.721606050557098      4.458071331865383      5.152332469775356
23     2      3.860803025278549      4.458071331865383      5.152332469775356
24     2     11.582409075835647      4.458071331865382      5.152332469775356
25     2      5.791204537917824      1.114517832966344      5.152332469775356
26     2      1.930401512639275      1.114517832966344      5.152332469775356
27     2      9.652007563196374      1.114517832966343      5.152332469775356
28     2      9.738714124185931      7.639650076918418      7.496086106762719
29     2      5.972620728041695      7.855186799104056      7.548298326203956
30     2     13.589019014695403      7.732334910238785      7.460963869775473
31     2      7.782179671095523      4.546348834373561      7.630845503161041
32     2      4.015114916605482      4.489113992540695      7.511716342715184
33     2     11.450101099505369      4.599830783150269      7.595827413346671
34     2      5.892196571156807      0.987275268505983      7.605970693244190
35     2      1.937224930335097      0.981083137735412      7.522813771470737
36     2      9.696965172656981      1.181969684248412      7.349062538866066
37     2     11.711556789832988      6.818443850537776      8.617278012895156
38     2      7.844765669517370      6.768473284179995      8.697775734027138
39     2      4.011609786613989      6.749240529630448      8.187373376476767
40     2      9.639662822046263      3.236282140038324      8.432587290673760
41     2      5.864874033773479      3.265073410842894      8.339616428945584
42     2      1.769215191059783      3.853512190707801      8.860125978446519
43     2      7.951262189626974     -0.091989492451693      8.334449409258799
44     2      3.877043064451558     -0.174202911043217      8.224106123806434
45     2     -0.116133732383972      0.069178594740554      8.374070925823480
46     2     10.767031712204693      6.388379866668092     11.973794915951066
47     2      9.929734697319407      1.018299742920365     10.165043374418980
48     2      3.854004577548246      7.075330009206912     10.506051339286859
49     2      5.721863218347687      2.919569817299079     13.055922706944372
50     2      5.332594403672552      0.822003429609570     11.883068311814519
51     2      2.223104731652892      3.121675267001617      8.497013922129577
52     2      5.936481697809176     -1.546762502974458     10.703815159546508
53     2      3.562746632429350     -0.962107029481446     10.409704887481501
54     2      8.651614170729026      7.407342500382700     11.899553316646328
55     2     14.229233728872973      9.226514154879689     10.638607599012163
56     2      5.054378646433538      2.910829042528006     10.574610393262041
57     2      3.441539025292152      1.894290297777140     13.435010530075228
58     2      3.028924697568530      1.390204072346324     11.017286160959005
59     2     13.643586372194903      5.547481215436076     10.726415278371581
60     2      3.401693691261420      3.885851978481894     11.985217113127685
61     2     12.939470892792594      7.188503541768283     12.461276765298267
0.000000000000000      0.000000000000000      0.000000000000000
11.582409075835649      0.000000000000000      0.000000000000000
5.791204537917825     10.030660496697113      0.000000000000000
0.000000000000000      0.000000000000000     37.821246761657591
}
Driver = ConjugateGradient {
  MaxForceComponent = 1E-4
  MaxSteps = 0
  LatticeOpt = No
  MovedAtoms = "1:-1"
  OutputPrefix = "geo_end"
  AppendGeometries = No
  ConvergentForcesOnly = Yes
  Constraints = {}
}
Hamiltonian = DFTB {
  EwaldParameter = 0.5
  Filling = Fermi {
    Temperature = 0.01
    IndependentKFilling = No
  }
  KPointsAndWeights = {
-0.33333333 -0.33333333  0.         1.0
-0.33333333  0.          0.         1.0
-0.33333333  0.33333333  0.         1.0
0.         -0.33333333  0.         1.0
0. 0. 0. 1.0
0.         0.33333333 0.         1.0
0.33333333 -0.33333333  0.         1.0
0.33333333 0.         0.         1.0
0.33333333 0.33333333 0.         1.0
  }
  MaxAngularMomentum = {
    H = s
    Si = p
  }
  SCC = YES
  SlaterKosterFiles = Type2FileNames {
    Prefix = /user/panosetti/data/progs/DFTB/parameters/pbc/pbc-0-3/
    Separator = "-"
    Suffix = ".skf"
    LowerCaseTypeName = No
  }
  PolynomialRepulsive = {}
  OldRepulsiveSum = No
  OrbitalResolvedSCC = No
  OldSKInterpolation = No
  Charge = 0.000000000000000E+000
  ReadInitialCharges = No
  InitialCharges = {}
  SCCTolerance = 1.000000000000000E-005
  MaxSCCIterations = 100
  Mixer = Broyden {
    MixingParameter = 0.200000000000000
    CachedIterations = -1
    InverseJacobiWeight = 1.000000000000000E-002
    MinimalWeight = 1.00000000000000
    MaximalWeight = 100000.000000000
    WeightFactor = 1.000000000000000E-002
  }
  ElectricField = {}
  DampXH = No
  SpinPolarisation = {}
  Eigensolver = DivideAndConquer {}
  Dispersion = {}
  ManyBodyDispersion = {}
  ThirdOrder = No
  ThirdOrderFull = No
}
Options = {
  WriteResultsTag = Yes
  WriteEigenvectors = No
  WriteAutotestTag = No
  WriteDetailedXML = No
  WriteDetailedOut = Yes
  WriteBandOut = Yes
  AtomResolvedEnergies = No
  RandomSeed = 0
  WriteHS = No
  WriteRealHS = No
  WriteCPA = No
  MinimiseMemoryUsage = No
  ShowFoldedCoords = No
}
ParserOptions = {
  IgnoreUnprocessedNodes = Yes
  ParserVersion = 4
  WriteHSDInput = Yes
  WriteXMLInput = No
  StopAfterParsing = No
}
Analysis = {
  ProjectStates = {}
}
Parallel = {
  RowBlockSize = 32
  ColumnBlockSize = 32
  Groups = 1
}
