Geometry = GenFormat {
61  S
H    Si
1      1     11.582409075835647      8.906309322142173      2.861931711395688
2      1      7.718508045882461      8.917930368849040      2.861259247486378
3      1     15.446310105788838      8.917930368849031      2.861259247486380
4      1      9.660522672401900      5.577504422577177      2.861931704475178
5      1      5.791204537917817      5.561949772975050      2.861407557836226
6      1     13.504295479269409      5.577504422577179      2.861931704475180
7      1      7.712392852791186      2.234353940465613      2.861407546699756
8      1      3.870016223044479      2.234353940465590      2.861407546699758
9      1     11.582409075835635      2.225457518195746      2.861259248360396
10     2     11.582409075835647      8.916142663730767      4.364249352331518
11     2      7.721606050557098      8.916142663730767      4.364249352331518
12     2     15.443212101114197      8.916142663730765      4.364249352331518
13     2      9.652007563196372      5.572589164831729      4.364249352331518
14     2      5.791204537917823      5.572589164831729      4.364249352331518
15     2     13.512810588474922      5.572589164831728      4.364249352331518
16     2      7.721606050557098      2.229035665932691      4.364249352331518
17     2      3.860803025278549      2.229035665932691      4.364249352331518
18     2     11.582409075835647      2.229035665932690      4.364249352331518
19     2      9.652007563196372      7.801624830764421      5.152332469775356
20     2      5.791204537917823      7.801624830764420      5.152332469775356
21     2     13.512810588474922      7.801624830764420      5.152332469775356
22     2      7.721606050557098      4.458071331865383      5.152332469775356
23     2      3.860803025278549      4.458071331865383      5.152332469775356
24     2     11.582409075835647      4.458071331865382      5.152332469775356
25     2      5.791204537917824      1.114517832966344      5.152332469775356
26     2      1.930401512639275      1.114517832966344      5.152332469775356
27     2      9.652007563196374      1.114517832966343      5.152332469775356
28     2      9.429826711724559      7.540142435459260      7.513526531300588
29     2      5.613893170393909      7.627729568662801      7.621735101182221
30     2     13.399723972582366      7.593861037281555      7.492948692522854
31     2      7.523904645855655      4.224160182401610      7.474098299380648
32     2      3.657626671520148      4.268643149916085      7.459025639789506
33     2     11.373766556184211      4.187971403995890      7.490122098411968
34     2      5.667185161392908      0.818156484527228      7.444217023447494
35     2      1.734896330352067      0.854892163688386      7.524727494416199
36     2      9.520045986681323      0.835788866274885      7.581684051444436
37     2     11.431391523190859      6.448091768074375      8.096696014839544
38     2      7.487610982894090      6.371958790826581      8.422346942343140
39     2      3.634924149735153      6.404375188634098      8.456419860297887
40     2      9.390306143451646      3.072698826187546      8.324346045312573
41     2      5.547529743774699      3.059849745471963      8.135980985026366
42     2      1.749635635273141      3.096567094417148      8.262373882448811
43     2      7.515716786827029     -0.285535626033475      8.442117485964824
44     2      3.716330153494713     -0.262642077798249      8.274820663765478
45     2     -0.149065021835548     -0.206116232897473      8.590225270679177
46     2     11.427599341226605      6.063652844312126     10.338599933483058
47     2      7.523489533864678      5.432515062500730     10.680859761607692
48     2      2.953006459318005      5.544043783195174     10.720436191981779
49     2      8.726187338267938      3.364784197679238     10.624277632188017
50     2      5.061620704945272      2.406888797096922     10.264670770010705
51     2      1.893700261657341      3.375894814988621     10.630839559620201
52     2      6.637654687712298     -0.731381037033394     10.705592760591033
53     2      4.208479856943128     -0.611262956054668     10.622464012890056
54     2      9.399098670912419      7.001006844234102     11.230973474751442
55     2     13.001961905194099      7.162921567859419     11.941142168293027
56     2      5.193266518767957      4.548719847009905     11.422663855612662
57     2      6.963609639183050      1.674588739051655     11.455056901050993
58     2      3.228803818140891      1.500198560593652     11.688919466684936
59     2     11.057963582918326      3.959667524012078     11.392375490658177
60     2      5.142875699843487      2.615696779131608     12.863893932723983
61     2     10.903025363832491      5.980307226884679     12.804697980493073
0.000000000000000      0.000000000000000      0.000000000000000
11.582409075835649      0.000000000000000      0.000000000000000
5.791204537917825     10.030660496697113      0.000000000000000
0.000000000000000      0.000000000000000     37.821246761657591
}
Driver = ConjugateGradient {
  MaxForceComponent = 1E-4
  MaxSteps = 0
  LatticeOpt = No
  MovedAtoms = "1:-1"
  OutputPrefix = "geo_end"
  AppendGeometries = No
  ConvergentForcesOnly = Yes
  Constraints = {}
}
Hamiltonian = DFTB {
  EwaldParameter = 0.5
  Filling = Fermi {
    Temperature = 0.01
    IndependentKFilling = No
  }
  KPointsAndWeights = {
-0.33333333 -0.33333333  0.         1.0
-0.33333333  0.          0.         1.0
-0.33333333  0.33333333  0.         1.0
0.         -0.33333333  0.         1.0
0. 0. 0. 1.0
0.         0.33333333 0.         1.0
0.33333333 -0.33333333  0.         1.0
0.33333333 0.         0.         1.0
0.33333333 0.33333333 0.         1.0
  }
  MaxAngularMomentum = {
    H = s
    Si = p
  }
  SCC = YES
  SlaterKosterFiles = Type2FileNames {
    Prefix = /user/panosetti/data/progs/DFTB/parameters/pbc/pbc-0-3/
    Separator = "-"
    Suffix = ".skf"
    LowerCaseTypeName = No
  }
  PolynomialRepulsive = {}
  OldRepulsiveSum = No
  OrbitalResolvedSCC = No
  OldSKInterpolation = No
  Charge = 0.000000000000000E+000
  ReadInitialCharges = No
  InitialCharges = {}
  SCCTolerance = 1.000000000000000E-005
  MaxSCCIterations = 100
  Mixer = Broyden {
    MixingParameter = 0.200000000000000
    CachedIterations = -1
    InverseJacobiWeight = 1.000000000000000E-002
    MinimalWeight = 1.00000000000000
    MaximalWeight = 100000.000000000
    WeightFactor = 1.000000000000000E-002
  }
  ElectricField = {}
  DampXH = No
  SpinPolarisation = {}
  Eigensolver = DivideAndConquer {}
  Dispersion = {}
  ManyBodyDispersion = {}
  ThirdOrder = No
  ThirdOrderFull = No
}
Options = {
  WriteResultsTag = Yes
  WriteEigenvectors = No
  WriteAutotestTag = No
  WriteDetailedXML = No
  WriteDetailedOut = Yes
  WriteBandOut = Yes
  AtomResolvedEnergies = No
  RandomSeed = 0
  WriteHS = No
  WriteRealHS = No
  WriteCPA = No
  MinimiseMemoryUsage = No
  ShowFoldedCoords = No
}
ParserOptions = {
  IgnoreUnprocessedNodes = Yes
  ParserVersion = 4
  WriteHSDInput = Yes
  WriteXMLInput = No
  StopAfterParsing = No
}
Analysis = {
  ProjectStates = {}
}
Parallel = {
  RowBlockSize = 32
  ColumnBlockSize = 32
  Groups = 1
}
