#=======================================================
#FHI-aims file: geometry.in
#Created using the Atomic Simulation Environment (ASE)
#=======================================================
lattice_vector 7.7216060505570994 0.0000000000000000 0.0000000000000000 
lattice_vector 3.8608030252785497 6.6871069977980753 0.0000000000000000 
lattice_vector 0.0000000000000000 0.0000000000000000 30.9735792314329466 
atom 0.0000000000000000 2.2290356659326918 2.7999999999999998 H
atom 3.8608030252785497 2.2290356659326918 2.7999999999999998 H
atom 1.9304015126392746 5.5725891648317285 2.7999999999999998 H
atom 5.7912045379178245 5.5725891648317285 2.7999999999999998 H
atom 0.0000000000000000 2.2290356659326918 4.3642493523315178 Si
constrain_relaxation .true.
atom 3.8608030252785497 2.2290356659326918 4.3642493523315178 Si
constrain_relaxation .true.
atom 1.9304015126392746 5.5725891648317285 4.3642493523315178 Si
constrain_relaxation .true.
atom 5.7912045379178245 5.5725891648317285 4.3642493523315178 Si
constrain_relaxation .true.
atom 0.0000000000000000 0.0000000000000000 5.1523324697753576 Si
constrain_relaxation .true.
atom 3.8608030252785497 0.0000000000000000 5.1523324697753576 Si
constrain_relaxation .true.
atom 1.9304015126392748 3.3435534988990376 5.1523324697753576 Si
constrain_relaxation .true.
atom 5.7912045379178245 3.3435534988990376 5.1523324697753576 Si
constrain_relaxation .true.
atom 0.0000000000000000 0.0000000000000000 7.5165818221068754 Si
constrain_relaxation .true.
atom 3.8608030252785497 0.0000000000000000 7.5165818221068754 Si
constrain_relaxation .true.
atom 1.9304015126392748 3.3435534988990376 7.5165818221068754 Si
constrain_relaxation .true.
atom 5.7912045379178245 3.3435534988990376 7.5165818221068754 Si
constrain_relaxation .true.
atom 1.9304015126392748 1.1145178329663459 8.3046649395507153 Si
constrain_relaxation .true.
atom 5.7912045379178245 1.1145178329663459 8.3046649395507153 Si
constrain_relaxation .true.
atom 3.8608030252785497 4.4580713318653835 8.3046649395507153 Si
constrain_relaxation .true.
atom 7.7216060505570994 4.4580713318653835 8.3046649395507153 Si
constrain_relaxation .true.
atom 1.9304015126392748 1.1145178329663459 10.6689142918822313 Si
atom 5.7912045379178245 1.1145178329663459 10.6689142918822313 Si
atom 3.8608030252785497 4.4580713318653835 10.6689142918822313 Si
atom 7.7216060505570994 4.4580713318653835 10.6689142918822313 Si
atom 0.0000000000000000 2.2290356659326918 11.4569974093260711 Si
atom 3.8608030252785497 2.2290356659326918 11.4569974093260711 Si
atom 1.9304015126392746 5.5725891648317285 11.4569974093260711 Si
atom 5.7912045379178245 5.5725891648317285 11.4569974093260711 Si
atom 0.0000000000000000 2.2290356659326918 13.8212467616575907 Si
atom 3.8608030252785497 2.2290356659326918 13.8212467616575907 Si
atom 1.9304015126392746 5.5725891648317285 13.8212467616575907 Si
atom 5.7912045379178245 5.5725891648317285 13.8212467616575907 Si
atom 0.0000000000000000 0.0000000000000000 14.6093298791014305 Si
atom 3.8608030252785497 0.0000000000000000 14.6093298791014305 Si
atom 1.9304015126392748 3.3435534988990376 14.6093298791014305 Si
atom 5.7912045379178245 3.3435534988990376 14.6093298791014305 Si
atom 0.0000000000000000 0.0000000000000000 16.1735792314329458 H
atom 3.8608030252785497 0.0000000000000000 16.1735792314329458 H
atom 1.9304015126392748 3.3435534988990376 16.1735792314329458 H
atom 5.7912045379178245 3.3435534988990376 16.1735792314329458 H
