Geometry = GenFormat {
61  S
H    Si
1      1     11.582409075835647      8.906309322142173      2.861931711395688
2      1      7.718508045882461      8.917930368849040      2.861259247486378
3      1     15.446310105788838      8.917930368849031      2.861259247486380
4      1      9.660522672401900      5.577504422577177      2.861931704475178
5      1      5.791204537917817      5.561949772975050      2.861407557836226
6      1     13.504295479269409      5.577504422577179      2.861931704475180
7      1      7.712392852791186      2.234353940465613      2.861407546699756
8      1      3.870016223044479      2.234353940465590      2.861407546699758
9      1     11.582409075835635      2.225457518195746      2.861259248360396
10     2     11.582409075835647      8.916142663730767      4.364249352331518
11     2      7.721606050557098      8.916142663730767      4.364249352331518
12     2     15.443212101114197      8.916142663730765      4.364249352331518
13     2      9.652007563196372      5.572589164831729      4.364249352331518
14     2      5.791204537917823      5.572589164831729      4.364249352331518
15     2     13.512810588474922      5.572589164831728      4.364249352331518
16     2      7.721606050557098      2.229035665932691      4.364249352331518
17     2      3.860803025278549      2.229035665932691      4.364249352331518
18     2     11.582409075835647      2.229035665932690      4.364249352331518
19     2      9.652007563196372      7.801624830764421      5.152332469775356
20     2      5.791204537917823      7.801624830764420      5.152332469775356
21     2     13.512810588474922      7.801624830764420      5.152332469775356
22     2      7.721606050557098      4.458071331865383      5.152332469775356
23     2      3.860803025278549      4.458071331865383      5.152332469775356
24     2     11.582409075835647      4.458071331865382      5.152332469775356
25     2      5.791204537917824      1.114517832966344      5.152332469775356
26     2      1.930401512639275      1.114517832966344      5.152332469775356
27     2      9.652007563196374      1.114517832966343      5.152332469775356
28     2      9.702802522059645      7.802791564909666      7.480810522647068
29     2      5.873091508859338      7.783753747222022      7.548290092228952
30     2     13.580566947964831      7.849972374435823      7.549403953030341
31     2      7.813307655091865      4.481046277338987      7.627219084395687
32     2      3.899074052164783      4.442199262624353      7.527468642813064
33     2     11.612093260236287      4.470641597862502      7.605972538483071
34     2      5.851420002675003      1.104033705719288      7.487636815595476
35     2      1.970602032485647      1.111191807379841      7.556842358716442
36     2      9.606725485194039      1.203780064260170      7.619579246962999
37     2     11.635665042576477      6.815273999631443      8.469597910335793
38     2      7.827563928059489      6.742966993951010      8.491954815017108
39     2      3.925514837170859      6.678442053705917      8.306861829239315
40     2      9.729938829239954      3.439447806987478      8.664153800443874
41     2      5.845570789505975      3.327241487537855      8.257202468156690
42     2      1.978420965183124      3.336649370611616      8.369981332355769
43     2      7.704520531522119      0.017641477000597      8.478368199901231
44     2      3.982725319217285     -0.025312435929049      8.371809509695145
45     2     -0.011294712636455      0.015064617891377      8.193136316240563
46     2     10.047083147738949      4.222681893121735     11.291021393317239
47     2      6.783527899825233      4.137444329455071     12.918741592567162
48     2      2.076262653942006      4.046516268742589     13.164804300023201
49     2      7.678448515520876      1.968994416810540     12.812651545116946
50     2      4.061828322280926      1.619904577935013     12.306776126579459
51     2      0.681505291386163      2.118217327560227     13.431924737410695
52     2      5.010143613026161     -1.309666133539794     10.286086157412740
53     2      2.783283441461984     -2.447724547371056     10.693955962477224
54     2      8.415180113828356      5.745083940846988     12.176322044205447
55     2     11.443882361447626      5.126799203495673     13.215494218624251
56     2      4.492700186685170      3.709068977294939     13.614865949439263
57     2      5.938197698386171      0.186401339681716     12.262680179729355
58     2      2.467474331946844      0.404310982123254     13.703061459107923
59     2      9.943316936405152      2.840978776492750     13.293086436454796
60     2      4.096417194769665      1.798731089598976     14.952619947674059
61     2     10.173016022521777      4.645710794653187     17.120854880758692
0.000000000000000      0.000000000000000      0.000000000000000
11.582409075835649      0.000000000000000      0.000000000000000
5.791204537917825     10.030660496697113      0.000000000000000
0.000000000000000      0.000000000000000     37.821246761657591
}
Driver = ConjugateGradient {
  MaxForceComponent = 1E-4
  MaxSteps = 0
  LatticeOpt = No
  MovedAtoms = "1:-1"
  OutputPrefix = "geo_end"
  AppendGeometries = No
  ConvergentForcesOnly = Yes
  Constraints = {}
}
Hamiltonian = DFTB {
  EwaldParameter = 0.5
  Filling = Fermi {
    Temperature = 0.01
    IndependentKFilling = No
  }
  KPointsAndWeights = {
-0.33333333 -0.33333333  0.         1.0
-0.33333333  0.          0.         1.0
-0.33333333  0.33333333  0.         1.0
0.         -0.33333333  0.         1.0
0. 0. 0. 1.0
0.         0.33333333 0.         1.0
0.33333333 -0.33333333  0.         1.0
0.33333333 0.         0.         1.0
0.33333333 0.33333333 0.         1.0
  }
  MaxAngularMomentum = {
    H = s
    Si = p
  }
  SCC = YES
  SlaterKosterFiles = Type2FileNames {
    Prefix = /user/panosetti/data/progs/DFTB/parameters/pbc/pbc-0-3/
    Separator = "-"
    Suffix = ".skf"
    LowerCaseTypeName = No
  }
  PolynomialRepulsive = {}
  OldRepulsiveSum = No
  OrbitalResolvedSCC = No
  OldSKInterpolation = No
  Charge = 0.000000000000000E+000
  ReadInitialCharges = No
  InitialCharges = {}
  SCCTolerance = 1.000000000000000E-005
  MaxSCCIterations = 100
  Mixer = Broyden {
    MixingParameter = 0.200000000000000
    CachedIterations = -1
    InverseJacobiWeight = 1.000000000000000E-002
    MinimalWeight = 1.00000000000000
    MaximalWeight = 100000.000000000
    WeightFactor = 1.000000000000000E-002
  }
  ElectricField = {}
  DampXH = No
  SpinPolarisation = {}
  Eigensolver = DivideAndConquer {}
  Dispersion = {}
  ManyBodyDispersion = {}
  ThirdOrder = No
  ThirdOrderFull = No
}
Options = {
  WriteResultsTag = Yes
  WriteEigenvectors = No
  WriteAutotestTag = No
  WriteDetailedXML = No
  WriteDetailedOut = Yes
  WriteBandOut = Yes
  AtomResolvedEnergies = No
  RandomSeed = 0
  WriteHS = No
  WriteRealHS = No
  WriteCPA = No
  MinimiseMemoryUsage = No
  ShowFoldedCoords = No
}
ParserOptions = {
  IgnoreUnprocessedNodes = Yes
  ParserVersion = 4
  WriteHSDInput = Yes
  WriteXMLInput = No
  StopAfterParsing = No
}
Analysis = {
  ProjectStates = {}
}
Parallel = {
  RowBlockSize = 32
  ColumnBlockSize = 32
  Groups = 1
}
