Geometry = GenFormat {
8  S
H    Si
1      1      3.860803025278550      2.229035665932692      2.800000000000000
2      2      3.860803025278550      2.229035665932692      4.364249352331518
3      2      1.930401512639275      1.114517832966346      5.152332469775356
4      2      1.930401512639275      1.114517832966346      7.516581822106875
5      2     -0.000000000115165      0.000001236981433      8.306618656916985
6      2      0.000000000181535      0.000000406889171     10.671463787868507
7      2      3.860803025412946      2.229037707817029     11.492902047181015
8      2      3.860803026067613      2.229037075947556     13.837751556070224
0.000000000000000      0.000000000000000      0.000000000000000
3.860803025278550      0.000000000000000      0.000000000000000
1.930401512639275      3.343553498899038      0.000000000000000
0.000000000000000      0.000000000000000     37.821246761657591
}
Driver = ConjugateGradient {
  MaxForceComponent = 1E-4
  MaxSteps = 0
  LatticeOpt = No
  MovedAtoms = "1:-1"
  OutputPrefix = "geo_end"
  AppendGeometries = No
  ConvergentForcesOnly = Yes
  Constraints = {}
}
Hamiltonian = DFTB {
  Charge = 0
  EwaldParameter = 0.1
  Filling = Fermi {
    Temperature = 0.0001
    IndependentKFilling = No
  }
  KPointsAndWeights = {
-0.46153846 -0.46153846  0.         1.0
-0.46153846 -0.38461538  0.         1.0
-0.46153846  0.30769231  0.         1.0
0.07692308  0.23076923  0.         1.0
0.07692308  0.30769231  0.         1.0
0.07692308  0.38461538  0.         1.0
0.07692308  0.46153846  0.         1.0
0.15384615 -0.46153846  0.         1.0
0.15384615 -0.38461538  0.         1.0
0.15384615 -0.30769231  0.         1.0
0.15384615 -0.23076923  0.         1.0
0.15384615 -0.15384615  0.         1.0
0.15384615 -0.07692308  0.         1.0
-0.46153846  0.38461538  0.         1.0
0.15384615  0.          0.         1.0
0.15384615  0.07692308  0.         1.0
0.15384615  0.15384615  0.         1.0
0.15384615  0.23076923  0.         1.0
0.15384615  0.30769231  0.         1.0
0.15384615  0.38461538  0.         1.0
0.15384615  0.46153846  0.         1.0
0.23076923 -0.46153846  0.         1.0
0.23076923 -0.38461538  0.         1.0
0.23076923 -0.30769231  0.         1.0
-0.46153846  0.46153846  0.         1.0
0.23076923 -0.23076923  0.         1.0
0.23076923 -0.15384615  0.         1.0
0.23076923 -0.07692308  0.         1.0
0.23076923  0.          0.         1.0
0.23076923  0.07692308  0.         1.0
0.23076923  0.15384615  0.         1.0
0.23076923  0.23076923  0.         1.0
0.23076923  0.30769231  0.         1.0
0.23076923  0.38461538  0.         1.0
0.23076923  0.46153846  0.         1.0
-0.38461538 -0.46153846  0.         1.0
0.30769231 -0.46153846  0.         1.0
0.30769231 -0.38461538  0.         1.0
0.30769231 -0.30769231  0.         1.0
0.30769231 -0.23076923  0.         1.0
0.30769231 -0.15384615  0.         1.0
0.30769231 -0.07692308  0.         1.0
0.30769231  0.          0.         1.0
0.30769231  0.07692308  0.         1.0
0.30769231  0.15384615  0.         1.0
0.30769231  0.23076923  0.         1.0
-0.38461538 -0.38461538  0.         1.0
0.30769231  0.30769231  0.         1.0
0.30769231  0.38461538  0.         1.0
0.30769231  0.46153846  0.         1.0
0.38461538 -0.46153846  0.         1.0
0.38461538 -0.38461538  0.         1.0
0.38461538 -0.30769231  0.         1.0
0.38461538 -0.23076923  0.         1.0
0.38461538 -0.15384615  0.         1.0
0.38461538 -0.07692308  0.         1.0
0.38461538  0.          0.         1.0
-0.38461538 -0.30769231  0.         1.0
0.38461538  0.07692308  0.         1.0
0.38461538  0.15384615  0.         1.0
0.38461538  0.23076923  0.         1.0
0.38461538  0.30769231  0.         1.0
0.38461538  0.38461538  0.         1.0
0.38461538  0.46153846  0.         1.0
0.46153846 -0.46153846  0.         1.0
0.46153846 -0.38461538  0.         1.0
0.46153846 -0.30769231  0.         1.0
0.46153846 -0.23076923  0.         1.0
-0.38461538 -0.23076923  0.         1.0
0.46153846 -0.15384615  0.         1.0
0.46153846 -0.07692308  0.         1.0
0.46153846  0.          0.         1.0
0.46153846  0.07692308  0.         1.0
0.46153846  0.15384615  0.         1.0
0.46153846  0.23076923  0.         1.0
0.46153846  0.30769231  0.         1.0
0.46153846  0.38461538  0.         1.0
0.46153846  0.46153846  0.         1.0
-0.38461538 -0.15384615  0.         1.0
-0.38461538 -0.07692308  0.         1.0
-0.38461538  0.          0.         1.0
-0.46153846 -0.30769231  0.         1.0
-0.38461538  0.07692308  0.         1.0
-0.38461538  0.15384615  0.         1.0
-0.38461538  0.23076923  0.         1.0
-0.38461538  0.30769231  0.         1.0
-0.38461538  0.38461538  0.         1.0
-0.38461538  0.46153846  0.         1.0
-0.30769231 -0.46153846  0.         1.0
-0.30769231 -0.38461538  0.         1.0
-0.30769231 -0.30769231  0.         1.0
-0.30769231 -0.23076923  0.         1.0
-0.46153846 -0.23076923  0.         1.0
-0.30769231 -0.15384615  0.         1.0
-0.30769231 -0.07692308  0.         1.0
-0.30769231  0.          0.         1.0
-0.30769231  0.07692308  0.         1.0
-0.30769231  0.15384615  0.         1.0
-0.30769231  0.23076923  0.         1.0
-0.30769231  0.30769231  0.         1.0
-0.30769231  0.38461538  0.         1.0
-0.30769231  0.46153846  0.         1.0
-0.23076923 -0.46153846  0.         1.0
-0.46153846 -0.15384615  0.         1.0
-0.23076923 -0.38461538  0.         1.0
-0.23076923 -0.30769231  0.         1.0
-0.23076923 -0.23076923  0.         1.0
-0.23076923 -0.15384615  0.         1.0
-0.23076923 -0.07692308  0.         1.0
-0.23076923  0.          0.         1.0
-0.23076923  0.07692308  0.         1.0
-0.23076923  0.15384615  0.         1.0
-0.23076923  0.23076923  0.         1.0
-0.23076923  0.30769231  0.         1.0
-0.46153846 -0.07692308  0.         1.0
-0.23076923  0.38461538  0.         1.0
-0.23076923  0.46153846  0.         1.0
-0.15384615 -0.46153846  0.         1.0
-0.15384615 -0.38461538  0.         1.0
-0.15384615 -0.30769231  0.         1.0
-0.15384615 -0.23076923  0.         1.0
-0.15384615 -0.15384615  0.         1.0
-0.15384615 -0.07692308  0.         1.0
-0.15384615  0.          0.         1.0
-0.15384615  0.07692308  0.         1.0
-0.46153846  0.          0.         1.0
-0.15384615  0.15384615  0.         1.0
-0.15384615  0.23076923  0.         1.0
-0.15384615  0.30769231  0.         1.0
-0.15384615  0.38461538  0.         1.0
-0.15384615  0.46153846  0.         1.0
-0.07692308 -0.46153846  0.         1.0
-0.07692308 -0.38461538  0.         1.0
-0.07692308 -0.30769231  0.         1.0
-0.07692308 -0.23076923  0.         1.0
-0.07692308 -0.15384615  0.         1.0
-0.46153846  0.07692308  0.         1.0
-0.07692308 -0.07692308  0.         1.0
-0.07692308  0.          0.         1.0
-0.07692308  0.07692308  0.         1.0
-0.07692308  0.15384615  0.         1.0
-0.07692308  0.23076923  0.         1.0
-0.07692308  0.30769231  0.         1.0
-0.07692308  0.38461538  0.         1.0
-0.07692308  0.46153846  0.         1.0
0.         -0.46153846  0.         1.0
0.         -0.38461538  0.         1.0
-0.46153846  0.15384615  0.         1.0
0.         -0.30769231  0.         1.0
0.         -0.23076923  0.         1.0
0.         -0.15384615  0.         1.0
0.         -0.07692308  0.         1.0
0.  0.  0. 1.0
0.          0.07692308  0.         1.0
0.          0.15384615  0.         1.0
0.          0.23076923  0.         1.0
0.          0.30769231  0.         1.0
0.          0.38461538  0.         1.0
-0.46153846  0.23076923  0.         1.0
0.          0.46153846  0.         1.0
0.07692308 -0.46153846  0.         1.0
0.07692308 -0.38461538  0.         1.0
0.07692308 -0.30769231  0.         1.0
0.07692308 -0.23076923  0.         1.0
0.07692308 -0.15384615  0.         1.0
0.07692308 -0.07692308  0.         1.0
0.07692308  0.          0.         1.0
0.07692308  0.07692308  0.         1.0
0.07692308  0.15384615  0.         1.0
  }
  MaxAngularMomentum = {
    H = "s"
    Si = "p"
  }
  MaxSCCIterations = 100
  SCC = YES
  SlaterKosterFiles = Type2FileNames {
    Prefix = /user/panosetti/data/progs/DFTB/parameters/pbc/pbc-0-3/
    Separator = "-"
    Suffix = ".skf"
    LowerCaseTypeName = No
  }
  PolynomialRepulsive = {}
  OldRepulsiveSum = No
  OrbitalResolvedSCC = No
  OldSKInterpolation = No
  ReadInitialCharges = No
  InitialCharges = {}
  SCCTolerance = 1.000000000000000E-005
  Mixer = Broyden {
    MixingParameter = 0.200000000000000
    CachedIterations = -1
    InverseJacobiWeight = 1.000000000000000E-002
    MinimalWeight = 1.00000000000000
    MaximalWeight = 100000.000000000
    WeightFactor = 1.000000000000000E-002
  }
  ElectricField = {}
  DampXH = No
  SpinPolarisation = {}
  Eigensolver = DivideAndConquer {}
  Dispersion = {}
  ThirdOrder = No
  ThirdOrderFull = No
}
Options = {
  WriteResultsTag = Yes
  WriteEigenvectors = No
  WriteAutotestTag = No
  WriteDetailedXML = No
  WriteDetailedOut = Yes
  WriteBandOut = Yes
  AtomResolvedEnergies = No
  RandomSeed = 0
  WriteHS = No
  WriteRealHS = No
  MinimiseMemoryUsage = No
  ShowFoldedCoords = No
}
ParserOptions = {
  ParserVersion = 4
  WriteHSDInput = Yes
  WriteXMLInput = No
  StopAfterParsing = No
  IgnoreUnprocessedNodes = No
}
Analysis = {
  ProjectStates = {}
}
Parallel = {
  RowBlockSize = 32
  ColumnBlockSize = 32
  Groups = 1
}
