Geometry = GenFormat {
61  S
H    Si
1      1     11.582409075835647      8.906309322142173      2.861931711395688
2      1      7.718508045882461      8.917930368849040      2.861259247486378
3      1     15.446310105788838      8.917930368849031      2.861259247486380
4      1      9.660522672401900      5.577504422577177      2.861931704475178
5      1      5.791204537917817      5.561949772975050      2.861407557836226
6      1     13.504295479269409      5.577504422577179      2.861931704475180
7      1      7.712392852791186      2.234353940465613      2.861407546699756
8      1      3.870016223044479      2.234353940465590      2.861407546699758
9      1     11.582409075835635      2.225457518195746      2.861259248360396
10     2     11.582409075835647      8.916142663730767      4.364249352331518
11     2      7.721606050557098      8.916142663730767      4.364249352331518
12     2     15.443212101114197      8.916142663730765      4.364249352331518
13     2      9.652007563196372      5.572589164831729      4.364249352331518
14     2      5.791204537917823      5.572589164831729      4.364249352331518
15     2     13.512810588474922      5.572589164831728      4.364249352331518
16     2      7.721606050557098      2.229035665932691      4.364249352331518
17     2      3.860803025278549      2.229035665932691      4.364249352331518
18     2     11.582409075835647      2.229035665932690      4.364249352331518
19     2      9.652007563196372      7.801624830764421      5.152332469775356
20     2      5.791204537917823      7.801624830764420      5.152332469775356
21     2     13.512810588474922      7.801624830764420      5.152332469775356
22     2      7.721606050557098      4.458071331865383      5.152332469775356
23     2      3.860803025278549      4.458071331865383      5.152332469775356
24     2     11.582409075835647      4.458071331865382      5.152332469775356
25     2      5.791204537917824      1.114517832966344      5.152332469775356
26     2      1.930401512639275      1.114517832966344      5.152332469775356
27     2      9.652007563196374      1.114517832966343      5.152332469775356
28     2      9.696901985717664      7.888118749903115      7.524244426601979
29     2      5.850516101747870      7.885756230954699      7.444409618435062
30     2     13.423577314763079      7.787461179589275      7.468885298205550
31     2      7.317092373136703      4.447696742230198      7.397383736148041
32     2      4.824321088401897      4.697788164200229      7.295309443767229
33     2     11.369540115495042      4.848304840168828      7.649737008291684
34     2      5.745910780405581      0.922771775254545      7.554610503182326
35     2      1.956518286613213      0.963285046046193      7.578912602434521
36     2      9.758692100158132      0.786045901094518      7.402461076371631
37     2     11.561161099438442      6.976067260362215      8.730159591422009
38     2      7.724942071081737      6.651968602080538      8.198335907527344
39     2      3.888984174171141      6.756120410172015      8.087080735080647
40     2      8.944911389221238      2.853569645413927      8.276560500761226
41     2      6.408360742928805      2.710199908305603      9.041000283513966
42     2      1.283560852679586      2.724133533175659      9.047508165457170
43     2      7.774372421531011     -0.090637818336059      8.283972189033530
44     2      3.829512834110892     -0.029728714360966      8.672777322140149
45     2      0.033237440824156     -0.096992187181141      8.650632112588500
46     2      9.831556470681054      4.493063725663212      9.733873343633336
47     2      9.403992358334495      6.855956047720102     10.542445024849734
48     2      3.089185404873704      6.242926837020484     10.373086437544590
49     2     10.839576915376425      1.884393001429546     10.276490602464412
50     2      6.235568060837009      4.053585661875988     11.126263429054225
51     2      2.106658696628509      4.519115647905052      7.644672080369208
52     2      8.395427582395234      3.425922578672239     11.964451735928854
53     2      8.283302780706446      1.425590209745862     10.283812181807800
54     2      6.922160891407970      6.349414313789917     10.524068963154351
55     2     13.834421835815313      2.333966189392284     11.425025825369174
56     2      5.057008870808993      7.895317308278798     10.299038858919515
57     2      9.834217914563748      3.471904139440106     13.818346806706852
58     2      3.811977795535188      3.578292249047673      9.327758214776127
59     2     11.661437351751735      2.921472262008498     12.328122459434967
60     2      3.852878932249996      4.250096057245695     11.639612633455005
61     2     10.612173839030826      5.111073796186771     11.930224757523444
0.000000000000000      0.000000000000000      0.000000000000000
11.582409075835649      0.000000000000000      0.000000000000000
5.791204537917825     10.030660496697113      0.000000000000000
0.000000000000000      0.000000000000000     37.821246761657591
}
Driver = ConjugateGradient {
  MaxForceComponent = 1E-4
  MaxSteps = 0
  LatticeOpt = No
  MovedAtoms = "1:-1"
  OutputPrefix = "geo_end"
  AppendGeometries = No
  ConvergentForcesOnly = Yes
  Constraints = {}
}
Hamiltonian = DFTB {
  EwaldParameter = 0.5
  Filling = Fermi {
    Temperature = 0.01
    IndependentKFilling = No
  }
  KPointsAndWeights = {
-0.33333333 -0.33333333  0.         1.0
-0.33333333  0.          0.         1.0
-0.33333333  0.33333333  0.         1.0
0.         -0.33333333  0.         1.0
0. 0. 0. 1.0
0.         0.33333333 0.         1.0
0.33333333 -0.33333333  0.         1.0
0.33333333 0.         0.         1.0
0.33333333 0.33333333 0.         1.0
  }
  MaxAngularMomentum = {
    H = s
    Si = p
  }
  SCC = YES
  SlaterKosterFiles = Type2FileNames {
    Prefix = /user/panosetti/data/progs/DFTB/parameters/pbc/pbc-0-3/
    Separator = "-"
    Suffix = ".skf"
    LowerCaseTypeName = No
  }
  PolynomialRepulsive = {}
  OldRepulsiveSum = No
  OrbitalResolvedSCC = No
  OldSKInterpolation = No
  Charge = 0.000000000000000E+000
  ReadInitialCharges = No
  InitialCharges = {}
  SCCTolerance = 1.000000000000000E-005
  MaxSCCIterations = 100
  Mixer = Broyden {
    MixingParameter = 0.200000000000000
    CachedIterations = -1
    InverseJacobiWeight = 1.000000000000000E-002
    MinimalWeight = 1.00000000000000
    MaximalWeight = 100000.000000000
    WeightFactor = 1.000000000000000E-002
  }
  ElectricField = {}
  DampXH = No
  SpinPolarisation = {}
  Eigensolver = DivideAndConquer {}
  Dispersion = {}
  ManyBodyDispersion = {}
  ThirdOrder = No
  ThirdOrderFull = No
}
Options = {
  WriteResultsTag = Yes
  WriteEigenvectors = No
  WriteAutotestTag = No
  WriteDetailedXML = No
  WriteDetailedOut = Yes
  WriteBandOut = Yes
  AtomResolvedEnergies = No
  RandomSeed = 0
  WriteHS = No
  WriteRealHS = No
  WriteCPA = No
  MinimiseMemoryUsage = No
  ShowFoldedCoords = No
}
ParserOptions = {
  IgnoreUnprocessedNodes = Yes
  ParserVersion = 4
  WriteHSDInput = Yes
  WriteXMLInput = No
  StopAfterParsing = No
}
Analysis = {
  ProjectStates = {}
}
Parallel = {
  RowBlockSize = 32
  ColumnBlockSize = 32
  Groups = 1
}
