Geometry = GenFormat {
61  S
H    Si
1      1     11.582409075835647      8.906309322142173      2.861931711395688
2      1      7.718508045882461      8.917930368849040      2.861259247486378
3      1     15.446310105788838      8.917930368849031      2.861259247486380
4      1      9.660522672401900      5.577504422577177      2.861931704475178
5      1      5.791204537917817      5.561949772975050      2.861407557836226
6      1     13.504295479269409      5.577504422577179      2.861931704475180
7      1      7.712392852791186      2.234353940465613      2.861407546699756
8      1      3.870016223044479      2.234353940465590      2.861407546699758
9      1     11.582409075835635      2.225457518195746      2.861259248360396
10     2     11.582409075835647      8.916142663730767      4.364249352331518
11     2      7.721606050557098      8.916142663730767      4.364249352331518
12     2     15.443212101114197      8.916142663730765      4.364249352331518
13     2      9.652007563196372      5.572589164831729      4.364249352331518
14     2      5.791204537917823      5.572589164831729      4.364249352331518
15     2     13.512810588474922      5.572589164831728      4.364249352331518
16     2      7.721606050557098      2.229035665932691      4.364249352331518
17     2      3.860803025278549      2.229035665932691      4.364249352331518
18     2     11.582409075835647      2.229035665932690      4.364249352331518
19     2      9.652007563196372      7.801624830764421      5.152332469775356
20     2      5.791204537917823      7.801624830764420      5.152332469775356
21     2     13.512810588474922      7.801624830764420      5.152332469775356
22     2      7.721606050557098      4.458071331865383      5.152332469775356
23     2      3.860803025278549      4.458071331865383      5.152332469775356
24     2     11.582409075835647      4.458071331865382      5.152332469775356
25     2      5.791204537917824      1.114517832966344      5.152332469775356
26     2      1.930401512639275      1.114517832966344      5.152332469775356
27     2      9.652007563196374      1.114517832966343      5.152332469775356
28     2      9.761771277530176      7.504841644532696      7.577816821844724
29     2      5.808146608550901      7.807352238633444      7.573318498269930
30     2     13.618390635235251      7.689687208541733      7.611492611150193
31     2      7.607817118462223      4.429967144378473      7.494742372845113
32     2      3.764296025676409      4.330060681376173      7.497080148289199
33     2     11.681203115527143      4.382079395720178      7.543049710109562
34     2      5.801506360702645      1.039314108002588      7.534434632896470
35     2      1.794229834524276      1.238317574511999      7.642515433533427
36     2      9.558717704380259      0.981361112662587      7.563728902946197
37     2     11.729780347507115      6.529690825457423      8.533469046943301
38     2      7.705551341502465      6.583041133946653      8.447300286193407
39     2      4.024274079317823      6.498399048561040      8.393875366107313
40     2      9.661008096737682      3.890935915780917      9.090929798238053
41     2      5.701897384801073      3.281475653776101      8.419350402006906
42     2      1.904860908774933      3.384891499726901      8.695518188575244
43     2      7.677763202199746     -0.188838467507982      8.695154692870984
44     2      3.848426768332862      0.749900376222630      8.868157098217560
45     2     -0.078436149257611     -0.014412261065714      8.510273567845735
46     2     12.957191042707395      8.504155394860858     10.982282697705203
47     2      9.571262963485903      3.220134981645380      8.446259088696998
48     2      4.410403408411250      6.057116640580219     12.110486555017260
49     2      8.725058007136200      5.672753123852742     10.576212914664366
50     2      7.236845987529588      4.047644433945401     11.640680998669554
51     2      2.112769471605066      6.562198548028947     12.372268510801115
52     2      8.253314522933321      1.893630554053610     11.732614062743062
53     2      5.167678025119340      2.174332235311693     10.435556656321383
54     2     10.966747427084384      8.801934233280051      9.507988176660424
55     2     16.184692576158014     10.347141407216998     10.634467974913250
56     2      5.403653936207268      5.462866148329460     10.208553765469894
57     2     10.458460630405041      2.651906441852372     11.171260691119542
58     2      4.412351759826310      2.382646642049027     12.700144729825709
59     2     12.701285265701006      8.404651649536383     13.598514041745261
60     2      5.651436405240234      4.393952310854828     13.355052391317230
61     2     12.110146606938754     10.575816607399380     12.297350813201701
0.000000000000000      0.000000000000000      0.000000000000000
11.582409075835649      0.000000000000000      0.000000000000000
5.791204537917825     10.030660496697113      0.000000000000000
0.000000000000000      0.000000000000000     37.821246761657591
}
Driver = ConjugateGradient {
  MaxForceComponent = 1E-4
  MaxSteps = 0
  LatticeOpt = No
  MovedAtoms = "1:-1"
  OutputPrefix = "geo_end"
  AppendGeometries = No
  ConvergentForcesOnly = Yes
  Constraints = {}
}
Hamiltonian = DFTB {
  EwaldParameter = 0.5
  Filling = Fermi {
    Temperature = 0.01
    IndependentKFilling = No
  }
  KPointsAndWeights = {
-0.33333333 -0.33333333  0.         1.0
-0.33333333  0.          0.         1.0
-0.33333333  0.33333333  0.         1.0
0.         -0.33333333  0.         1.0
0. 0. 0. 1.0
0.         0.33333333 0.         1.0
0.33333333 -0.33333333  0.         1.0
0.33333333 0.         0.         1.0
0.33333333 0.33333333 0.         1.0
  }
  MaxAngularMomentum = {
    H = s
    Si = p
  }
  SCC = YES
  SlaterKosterFiles = Type2FileNames {
    Prefix = /user/panosetti/data/progs/DFTB/parameters/pbc/pbc-0-3/
    Separator = "-"
    Suffix = ".skf"
    LowerCaseTypeName = No
  }
  PolynomialRepulsive = {}
  OldRepulsiveSum = No
  OrbitalResolvedSCC = No
  OldSKInterpolation = No
  Charge = 0.000000000000000E+000
  ReadInitialCharges = No
  InitialCharges = {}
  SCCTolerance = 1.000000000000000E-005
  MaxSCCIterations = 100
  Mixer = Broyden {
    MixingParameter = 0.200000000000000
    CachedIterations = -1
    InverseJacobiWeight = 1.000000000000000E-002
    MinimalWeight = 1.00000000000000
    MaximalWeight = 100000.000000000
    WeightFactor = 1.000000000000000E-002
  }
  ElectricField = {}
  DampXH = No
  SpinPolarisation = {}
  Eigensolver = DivideAndConquer {}
  Dispersion = {}
  ManyBodyDispersion = {}
  ThirdOrder = No
  ThirdOrderFull = No
}
Options = {
  WriteResultsTag = Yes
  WriteEigenvectors = No
  WriteAutotestTag = No
  WriteDetailedXML = No
  WriteDetailedOut = Yes
  WriteBandOut = Yes
  AtomResolvedEnergies = No
  RandomSeed = 0
  WriteHS = No
  WriteRealHS = No
  WriteCPA = No
  MinimiseMemoryUsage = No
  ShowFoldedCoords = No
}
ParserOptions = {
  IgnoreUnprocessedNodes = Yes
  ParserVersion = 4
  WriteHSDInput = Yes
  WriteXMLInput = No
  StopAfterParsing = No
}
Analysis = {
  ProjectStates = {}
}
Parallel = {
  RowBlockSize = 32
  ColumnBlockSize = 32
  Groups = 1
}
