Geometry = GenFormat {
61  S
H    Si
1      1     11.582409075835647      8.906309322142173      2.861931711395688
2      1      7.718508045882461      8.917930368849040      2.861259247486378
3      1     15.446310105788838      8.917930368849031      2.861259247486380
4      1      9.660522672401900      5.577504422577177      2.861931704475178
5      1      5.791204537917817      5.561949772975050      2.861407557836226
6      1     13.504295479269409      5.577504422577179      2.861931704475180
7      1      7.712392852791186      2.234353940465613      2.861407546699756
8      1      3.870016223044479      2.234353940465590      2.861407546699758
9      1     11.582409075835635      2.225457518195746      2.861259248360396
10     2     11.582409075835647      8.916142663730767      4.364249352331518
11     2      7.721606050557098      8.916142663730767      4.364249352331518
12     2     15.443212101114197      8.916142663730765      4.364249352331518
13     2      9.652007563196372      5.572589164831729      4.364249352331518
14     2      5.791204537917823      5.572589164831729      4.364249352331518
15     2     13.512810588474922      5.572589164831728      4.364249352331518
16     2      7.721606050557098      2.229035665932691      4.364249352331518
17     2      3.860803025278549      2.229035665932691      4.364249352331518
18     2     11.582409075835647      2.229035665932690      4.364249352331518
19     2      9.652007563196372      7.801624830764421      5.152332469775356
20     2      5.791204537917823      7.801624830764420      5.152332469775356
21     2     13.512810588474922      7.801624830764420      5.152332469775356
22     2      7.721606050557098      4.458071331865383      5.152332469775356
23     2      3.860803025278549      4.458071331865383      5.152332469775356
24     2     11.582409075835647      4.458071331865382      5.152332469775356
25     2      5.791204537917824      1.114517832966344      5.152332469775356
26     2      1.930401512639275      1.114517832966344      5.152332469775356
27     2      9.652007563196374      1.114517832966343      5.152332469775356
28     2      9.732536465910544      7.811687306970548      7.532593263433768
29     2      5.727565126566299      7.739563419517031      7.450772625969059
30     2     13.501848610918760      7.761378670742831      7.538907015576846
31     2      7.706106582470637      4.274066031941985      7.492849201688393
32     2      3.758328681376904      4.354974176264031      7.475344752017395
33     2     11.643532402731935      4.395902981576906      7.587428453149797
34     2      5.914957611014577      1.231262113043385      7.422495884624482
35     2      1.850522765490102      1.163404862975246      7.594112361488989
36     2      9.755454487577463      1.012615563269627      7.518462714953823
37     2     11.630807706505770      6.641433419742110      8.448633518026893
38     2      7.698512420346677      6.564700505895225      8.058613201878119
39     2      3.869521438455522      6.566848696327868      8.302387868061135
40     2      9.660050688397243      3.231805312548266      8.345504827888224
41     2      5.690744768008445      3.364092211769501      8.401292137181368
42     2      1.943075506308320      3.325128871318001      8.660610351369735
43     2      7.760233542563311     -0.000822174558575      8.235140916531178
44     2      3.995785808606389      0.192138989189979      8.254784571425356
45     2      0.013681015400440     -0.247735125983296      8.642925686203210
46     2     12.167465899549503      6.667630463934245     10.905677476722577
47     2      8.214135407765722      8.796338123839602      9.650216156848002
48     2      5.519594631173094      8.449042710199590     10.964531196790533
49     2      9.350394615363324      6.145420769195404     11.963954149624975
50     2      7.139134254653393      3.935076789942366     11.191554500704093
51     2      4.953514694536721      6.026510142715417     10.538355809651636
52     2      7.683571350859143      0.654030769097340     10.530416662401031
53     2      5.187236580726492      0.664418773950904     10.543452226459486
54     2     10.312131361535695      8.434530337124380     11.379947053445568
55     2     14.511349332602801      8.349025159952374     10.646845758471690
56     2      7.532381895639371      6.327339409576875     10.399000135026451
57     2      9.105825638250394      2.737616757699394     10.711215532898544
58     2      4.916222257885935      3.272163210749814     10.666286245104727
59     2     13.490531339332586      5.126284113590203     13.276877083906227
60     2      6.954188872248327      5.725220119415436     12.765631907734264
61     2     12.768786873295978      8.843650378158499     12.215919039443408
0.000000000000000      0.000000000000000      0.000000000000000
11.582409075835649      0.000000000000000      0.000000000000000
5.791204537917825     10.030660496697113      0.000000000000000
0.000000000000000      0.000000000000000     37.821246761657591
}
Driver = ConjugateGradient {
  MaxForceComponent = 1E-4
  MaxSteps = 0
  LatticeOpt = No
  MovedAtoms = "1:-1"
  OutputPrefix = "geo_end"
  AppendGeometries = No
  ConvergentForcesOnly = Yes
  Constraints = {}
}
Hamiltonian = DFTB {
  EwaldParameter = 0.5
  Filling = Fermi {
    Temperature = 0.01
    IndependentKFilling = No
  }
  KPointsAndWeights = {
-0.33333333 -0.33333333  0.         1.0
-0.33333333  0.          0.         1.0
-0.33333333  0.33333333  0.         1.0
0.         -0.33333333  0.         1.0
0. 0. 0. 1.0
0.         0.33333333 0.         1.0
0.33333333 -0.33333333  0.         1.0
0.33333333 0.         0.         1.0
0.33333333 0.33333333 0.         1.0
  }
  MaxAngularMomentum = {
    H = s
    Si = p
  }
  SCC = YES
  SlaterKosterFiles = Type2FileNames {
    Prefix = /user/panosetti/data/progs/DFTB/parameters/pbc/pbc-0-3/
    Separator = "-"
    Suffix = ".skf"
    LowerCaseTypeName = No
  }
  PolynomialRepulsive = {}
  OldRepulsiveSum = No
  OrbitalResolvedSCC = No
  OldSKInterpolation = No
  Charge = 0.000000000000000E+000
  ReadInitialCharges = No
  InitialCharges = {}
  SCCTolerance = 1.000000000000000E-005
  MaxSCCIterations = 100
  Mixer = Broyden {
    MixingParameter = 0.200000000000000
    CachedIterations = -1
    InverseJacobiWeight = 1.000000000000000E-002
    MinimalWeight = 1.00000000000000
    MaximalWeight = 100000.000000000
    WeightFactor = 1.000000000000000E-002
  }
  ElectricField = {}
  DampXH = No
  SpinPolarisation = {}
  Eigensolver = DivideAndConquer {}
  Dispersion = {}
  ManyBodyDispersion = {}
  ThirdOrder = No
  ThirdOrderFull = No
}
Options = {
  WriteResultsTag = Yes
  WriteEigenvectors = No
  WriteAutotestTag = No
  WriteDetailedXML = No
  WriteDetailedOut = Yes
  WriteBandOut = Yes
  AtomResolvedEnergies = No
  RandomSeed = 0
  WriteHS = No
  WriteRealHS = No
  WriteCPA = No
  MinimiseMemoryUsage = No
  ShowFoldedCoords = No
}
ParserOptions = {
  IgnoreUnprocessedNodes = Yes
  ParserVersion = 4
  WriteHSDInput = Yes
  WriteXMLInput = No
  StopAfterParsing = No
}
Analysis = {
  ProjectStates = {}
}
Parallel = {
  RowBlockSize = 32
  ColumnBlockSize = 32
  Groups = 1
}
