Geometry = GenFormat {
61  S
H    Si
1      1     11.582409075835647      8.906309322142173      2.861931711395688
2      1      7.718508045882461      8.917930368849040      2.861259247486378
3      1     15.446310105788838      8.917930368849031      2.861259247486380
4      1      9.660522672401900      5.577504422577177      2.861931704475178
5      1      5.791204537917817      5.561949772975050      2.861407557836226
6      1     13.504295479269409      5.577504422577179      2.861931704475180
7      1      7.712392852791186      2.234353940465613      2.861407546699756
8      1      3.870016223044479      2.234353940465590      2.861407546699758
9      1     11.582409075835635      2.225457518195746      2.861259248360396
10     2     11.582409075835647      8.916142663730767      4.364249352331518
11     2      7.721606050557098      8.916142663730767      4.364249352331518
12     2     15.443212101114197      8.916142663730765      4.364249352331518
13     2      9.652007563196372      5.572589164831729      4.364249352331518
14     2      5.791204537917823      5.572589164831729      4.364249352331518
15     2     13.512810588474922      5.572589164831728      4.364249352331518
16     2      7.721606050557098      2.229035665932691      4.364249352331518
17     2      3.860803025278549      2.229035665932691      4.364249352331518
18     2     11.582409075835647      2.229035665932690      4.364249352331518
19     2      9.652007563196372      7.801624830764421      5.152332469775356
20     2      5.791204537917823      7.801624830764420      5.152332469775356
21     2     13.512810588474922      7.801624830764420      5.152332469775356
22     2      7.721606050557098      4.458071331865383      5.152332469775356
23     2      3.860803025278549      4.458071331865383      5.152332469775356
24     2     11.582409075835647      4.458071331865382      5.152332469775356
25     2      5.791204537917824      1.114517832966344      5.152332469775356
26     2      1.930401512639275      1.114517832966344      5.152332469775356
27     2      9.652007563196374      1.114517832966343      5.152332469775356
28     2      9.666998950596149      7.779182541412566      7.551231159873096
29     2      5.748102003985847      7.868484065074992      7.649517168935978
30     2     13.548933136498681      7.686987147755687      7.505849316412765
31     2      7.665817037066812      4.638720317245152      7.481479934335893
32     2      3.830286397058273      4.393264317425831      7.549201287523765
33     2     11.605444157905172      4.495456393493106      7.506224286302494
34     2      5.959309460994869      1.130896268219173      7.447368851444089
35     2      1.747995201702673      1.246621070425860      7.484081808878327
36     2      9.639741854573151      1.045474504489423      7.573165506318476
37     2     11.610988096132294      6.689665101472072      8.415943734811345
38     2      7.726159210624344      6.812835949314832      8.607471539936119
39     2      3.806596993550583      6.554241366954689      8.560776392562850
40     2      9.589236622439076      3.382100737010292      7.950080194838503
41     2      5.841318696524549      3.329137441719392      8.260273165049211
42     2      1.841326269832891      3.414232711804640      8.605691494196158
43     2      7.690082518321786     -0.160048999606611      8.410762992848412
44     2      3.932295691310994     -0.056651207948406      8.464428726654830
45     2      0.004523049793366      0.104420620950448      8.634237803935868
46     2      9.465104908076578      4.070390284234962     10.136731835773412
47     2      7.308801978519464      4.771144066381587     11.111583816159261
48     2      2.476319806763478      5.074197993198917     10.508779887750395
49     2      8.372945697144205      2.357468104167453     11.538886629779324
50     2      5.002394150725434      2.240658209835533     12.405822548362252
51     2      1.197392691007848      2.087017367098026     10.677538239064283
52     2      6.961436857045634     -0.904222358463379     10.748905098649502
53     2      3.326308150955377     -1.404942595686641     10.916084030629493
54     2      9.816480045754076      6.263793427158332     11.257028787409574
55     2     12.184687333490530      6.679699525821606     10.741225888095014
56     2      2.816843511836926      3.235750025819530     12.176147069578620
57     2      5.241322927820868     -0.210658750648468     12.157490831037618
58     2      3.768820284029010      0.802932652186892      8.783635803947719
59     2     11.222875798435565      3.680142065391532     11.648888071247315
60     2      6.157914439074434      2.686111299521127     10.499179381542536
61     2      9.106968719691571      4.346948099638859     12.943829577052787
0.000000000000000      0.000000000000000      0.000000000000000
11.582409075835649      0.000000000000000      0.000000000000000
5.791204537917825     10.030660496697113      0.000000000000000
0.000000000000000      0.000000000000000     37.821246761657591
}
Driver = ConjugateGradient {
  MaxForceComponent = 1E-4
  MaxSteps = 0
  LatticeOpt = No
  MovedAtoms = "1:-1"
  OutputPrefix = "geo_end"
  AppendGeometries = No
  ConvergentForcesOnly = Yes
  Constraints = {}
}
Hamiltonian = DFTB {
  EwaldParameter = 0.5
  Filling = Fermi {
    Temperature = 0.01
    IndependentKFilling = No
  }
  KPointsAndWeights = {
-0.33333333 -0.33333333  0.         1.0
-0.33333333  0.          0.         1.0
-0.33333333  0.33333333  0.         1.0
0.         -0.33333333  0.         1.0
0. 0. 0. 1.0
0.         0.33333333 0.         1.0
0.33333333 -0.33333333  0.         1.0
0.33333333 0.         0.         1.0
0.33333333 0.33333333 0.         1.0
  }
  MaxAngularMomentum = {
    H = s
    Si = p
  }
  SCC = YES
  SlaterKosterFiles = Type2FileNames {
    Prefix = /user/panosetti/data/progs/DFTB/parameters/pbc/pbc-0-3/
    Separator = "-"
    Suffix = ".skf"
    LowerCaseTypeName = No
  }
  PolynomialRepulsive = {}
  OldRepulsiveSum = No
  OrbitalResolvedSCC = No
  OldSKInterpolation = No
  Charge = 0.000000000000000E+000
  ReadInitialCharges = No
  InitialCharges = {}
  SCCTolerance = 1.000000000000000E-005
  MaxSCCIterations = 100
  Mixer = Broyden {
    MixingParameter = 0.200000000000000
    CachedIterations = -1
    InverseJacobiWeight = 1.000000000000000E-002
    MinimalWeight = 1.00000000000000
    MaximalWeight = 100000.000000000
    WeightFactor = 1.000000000000000E-002
  }
  ElectricField = {}
  DampXH = No
  SpinPolarisation = {}
  Eigensolver = DivideAndConquer {}
  Dispersion = {}
  ManyBodyDispersion = {}
  ThirdOrder = No
  ThirdOrderFull = No
}
Options = {
  WriteResultsTag = Yes
  WriteEigenvectors = No
  WriteAutotestTag = No
  WriteDetailedXML = No
  WriteDetailedOut = Yes
  WriteBandOut = Yes
  AtomResolvedEnergies = No
  RandomSeed = 0
  WriteHS = No
  WriteRealHS = No
  WriteCPA = No
  MinimiseMemoryUsage = No
  ShowFoldedCoords = No
}
ParserOptions = {
  IgnoreUnprocessedNodes = Yes
  ParserVersion = 4
  WriteHSDInput = Yes
  WriteXMLInput = No
  StopAfterParsing = No
}
Analysis = {
  ProjectStates = {}
}
Parallel = {
  RowBlockSize = 32
  ColumnBlockSize = 32
  Groups = 1
}
