Geometry = GenFormat {
174  S
H    Si
1      1     23.160188533881467     15.593913078079176      2.862368963710540
2      1     19.304015029603711     15.615493912969068      2.862066676131522
3      1     15.447841693669760     15.593913161390400      2.862369146990017
4      1     11.583204051385659     15.598099952880570      2.861237217654831
5      1     27.024826335251639     15.598099985367178      2.861237103194502
6      1     21.238590155411007     12.260672989728228      2.862534435591644
7      1     17.369440069481726     12.260673021803640      2.862534563457021
8      1     13.521832601739707     12.259979501747702      2.862347993354633
9      1      9.652007597192307     12.238686050056254      2.861724873827502
10     1     25.086197632533263     12.259979492697171      2.862347799881452
11     1     19.304015126960369      8.919157504040754      2.862174289435317
12     1     15.446414061933240      8.903523986488050      2.862431451247936
13     1     11.583104058005159      8.905857952779987      2.862751738484310
14     1      7.720911080553488      8.905857922911524      2.862751673339731
15     1     23.161616205720044      8.903523907428903      2.862431347499928
16     1     17.364417016840697      5.591711287873182      2.861219938890341
17     1     13.496330901893717      5.587412909408053      2.862724027704144
18     1      9.652007533238249      5.573021632147348      2.861558268777024
19     1      5.807684220200764      5.587412912288341      2.862724036389736
20     1     21.243613290034137      5.591711250073768      2.861219925810099
21     1     15.424844681348038      2.234470471990975      2.861541212348506
22     1     11.569369731114811      2.232677170920133      2.862861917542022
23     1      7.734645357387002      2.232677148368155      2.862861989020442
24     1      3.879170474255306      2.234470452741902      2.861541337048700
25     1     19.304015151398556      2.216672422998709      2.860777164407427
26     2     23.164818151671295     15.603249661528842      4.364249352331518
27     2     19.304015126392745     15.603249661528842      4.364249352331518
28     2     15.443212101114195     15.603249661528841      4.364249352331518
29     2     11.582409075835645     15.603249661528841      4.364249352331518
30     2     27.025621176949844     15.603249661528841      4.364249352331518
31     2     21.234416639032020     12.259696162629805      4.364249352331518
32     2     17.373613613753470     12.259696162629805      4.364249352331518
33     2     13.512810588474920     12.259696162629803      4.364249352331518
34     2      9.652007563196371     12.259696162629803      4.364249352331518
35     2     25.095219664310569     12.259696162629803      4.364249352331518
36     2     19.304015126392745      8.916142663730767      4.364249352331518
37     2     15.443212101114195      8.916142663730767      4.364249352331518
38     2     11.582409075835645      8.916142663730765      4.364249352331518
39     2      7.721606050557096      8.916142663730765      4.364249352331518
40     2     23.164818151671295      8.916142663730763      4.364249352331518
41     2     17.373613613753470      5.572589164831729      4.364249352331518
42     2     13.512810588474922      5.572589164831728      4.364249352331518
43     2      9.652007563196372      5.572589164831728      4.364249352331518
44     2      5.791204537917821      5.572589164831728      4.364249352331518
45     2     21.234416639032020      5.572589164831728      4.364249352331518
46     2     15.443212101114197      2.229035665932690      4.364249352331518
47     2     11.582409075835647      2.229035665932690      4.364249352331518
48     2      7.721606050557098      2.229035665932690      4.364249352331518
49     2      3.860803025278546      2.229035665932690      4.364249352331518
50     2     19.304015126392745      2.229035665932688      4.364249352331518
51     2     21.234416639032020     14.488731828562496      5.152332469775356
52     2     17.373613613753470     14.488731828562496      5.152332469775356
53     2     13.512810588474920     14.488731828562495      5.152332469775356
54     2      9.652007563196371     14.488731828562495      5.152332469775356
55     2     25.095219664310569     14.488731828562495      5.152332469775356
56     2     19.304015126392745     11.145178329663459      5.152332469775356
57     2     15.443212101114195     11.145178329663459      5.152332469775356
58     2     11.582409075835645     11.145178329663457      5.152332469775356
59     2      7.721606050557096     11.145178329663457      5.152332469775356
60     2     23.164818151671295     11.145178329663455      5.152332469775356
61     2     17.373613613753470      7.801624830764419      5.152332469775356
62     2     13.512810588474922      7.801624830764419      5.152332469775356
63     2      9.652007563196372      7.801624830764418      5.152332469775356
64     2      5.791204537917821      7.801624830764418      5.152332469775356
65     2     21.234416639032020      7.801624830764418      5.152332469775356
66     2     15.443212101114197      4.458071331865382      5.152332469775356
67     2     11.582409075835647      4.458071331865382      5.152332469775356
68     2      7.721606050557098      4.458071331865382      5.152332469775356
69     2      3.860803025278546      4.458071331865382      5.152332469775356
70     2     19.304015126392745      4.458071331865380      5.152332469775356
71     2     13.512810588474922      1.114517832966346      5.152332469775356
72     2      9.652007563196372      1.114517832966346      5.152332469775356
73     2      5.791204537917821      1.114517832966346      5.152332469775356
74     2      1.930401512639271      1.114517832966346      5.152332469775356
75     2     17.373613613753474      1.114517832966344      5.152332469775356
76     2     21.234416639032020     14.488731828562496      7.516581822106875
77     2     17.373613613753470     14.488731828562496      7.516581822106875
78     2     13.512810588474920     14.488731828562495      7.516581822106875
79     2      9.652007563196371     14.488731828562495      7.516581822106875
80     2     25.095219664310569     14.488731828562495      7.516581822106875
81     2     19.304015126392745     11.145178329663459      7.516581822106875
82     2     15.443212101114195     11.145178329663459      7.516581822106875
83     2     11.582409075835645     11.145178329663457      7.516581822106875
84     2      7.721606050557096     11.145178329663457      7.516581822106875
85     2     23.164818151671295     11.145178329663455      7.516581822106875
86     2     17.373613613753470      7.801624830764419      7.516581822106875
87     2     13.512810588474922      7.801624830764419      7.516581822106875
88     2      9.652007563196372      7.801624830764418      7.516581822106875
89     2      5.791204537917821      7.801624830764418      7.516581822106875
90     2     21.234416639032020      7.801624830764418      7.516581822106875
91     2     15.443212101114197      4.458071331865382      7.516581822106875
92     2     11.582409075835647      4.458071331865382      7.516581822106875
93     2      7.721606050557098      4.458071331865382      7.516581822106875
94     2      3.860803025278546      4.458071331865382      7.516581822106875
95     2     19.304015126392745      4.458071331865380      7.516581822106875
96     2     13.512810588474922      1.114517832966346      7.516581822106875
97     2      9.652007563196372      1.114517832966346      7.516581822106875
98     2      5.791204537917821      1.114517832966346      7.516581822106875
99     2      1.930401512639271      1.114517832966346      7.516581822106875
100    2     17.373613613753474      1.114517832966344      7.516581822106875
101    2     23.163804388083339     13.375125083549353      8.068959462970010
102    2     19.304015167547433     13.379438187528899      8.400396012960954
103    2     15.444225879812263     13.375125202357399      8.068955706068923
104    2     11.584689556862841     13.355095785128508      8.349184115392744
105    2      7.719325613417057     13.355095547685195      8.349186385893393
106    2     21.239646780082040     10.039965534451644      8.361568166776747
107    2     17.368383442782232     10.039965628185072      8.361565644042416
108    2     13.495995918110742     10.062521080106064      8.380425503822179
109    2      9.652007729417832     10.033074767832119      8.054205003382009
110    2      5.808019377163429     10.062521283127950      8.380427687530602
111    2     19.304015649535007      6.591832951936881      8.512536117507324
112    2     15.446682089675882      6.673799374763203      8.326520304228826
113    2     11.591767255695620      6.695646468645503      8.394621275160819
114    2      7.712247791364984      6.695646617508375      8.394620079065232
115    2      3.857333497531282      6.673799351049411      8.326519354193172
116    2     17.350524611875290      3.355339821429002      8.298767550861431
117    2     13.515225131347432      3.343764238930011      8.053361194554221
118    2      9.652007622160212      3.332342689009598      8.399685102926691
119    2      5.788790060723019      3.343764225397592      8.053358907400957
120    2      1.953490456776951      3.355339020929432      8.298766223366503
121    2     15.425413013606400      0.011000622665990      8.348090275018899
122    2     11.618570896460852      0.003341001179163      8.383298623558437
123    2      7.685444761226647      0.003341242962848      8.383295786702829
124    2      3.878601345615961      0.011000586870400      8.348086702437904
125    2     -0.000000752344742      0.001901434914475      8.496622944220798
126    2     23.133009535365755     13.399954603274788     10.341951004556812
127    2     19.304015584213708     13.417627171864757     10.843386160823009
128    2     15.475020287339028     13.399955075283550     10.341942838167663
129    2     11.904416630562157     12.846034468135022     10.678594826915255
130    2      7.399599160123698     12.846034306566157     10.678596818545246
131    2     21.250406793288299     10.152990067813581     10.777264178558834
132    2     17.357622400904678     10.152989758566811     10.777262063199395
133    2     13.137702174617448     10.704077967541378     10.697919294050278
134    2      9.652008711831284      9.999336066408686     10.317537188679434
135    2      6.166312850769492     10.704077576037342     10.697921642187906
136    2     19.304016318356219      5.206922869259502     10.721378468023806
137    2     15.785340242865908      6.131544076035491     10.635780948519253
138    2     11.563754540035598      6.711609628452523     10.828035886072227
139    2      7.740260497848689      6.711610198769820     10.828035012462225
140    2      3.518675361448902      6.131542673842387     10.635780045919113
141    2     17.072733669182650      4.039864949615078     10.569218971080760
142    2     13.487375942662585      3.421311420473434     10.316485308273514
143    2      9.652007657019871      3.372880445501023     10.837071264849879
144    2      5.816638726155434      3.421309718611212     10.316478780338802
145    2      2.231282892736614      4.039863367556483     10.569217998319820
146    2     14.820529971585584      0.032529074481887     10.676124704569768
147    2     12.344343628669970      0.028555226275422     10.707143003497265
148    2      6.959670024922893      0.028555459528988     10.707139768635621
149    2      4.483484456388274      0.032529278271889     10.676121737492268
150    2     21.394808916906843     14.523470020915932     11.516549886777419
151    2     17.213221174905151     14.523469768713651     11.516549707508874
152    2     13.646433294651061     14.443061916091480     11.503592172077342
153    2     24.961596339784872     14.443061283272439     11.503592812438880
154    2      9.652008243644383     12.111107547325204     11.465254993019318
155    2     19.304014267594940     11.193790127404020     11.868302641520813
156    2     15.345395951511346     11.335237900731579     11.518588871605777
157    2     11.500877125392764      9.072795171727254     11.485687337690685
158    2      7.803140057433097      9.072796488479968     11.485686439746869
159    2     23.262633498612853     11.335236948091802     11.518589288974582
160    2     17.413389038830619      7.808775439119890     11.316103790524732
161    2     13.574940078477891      5.485657349091700     11.488391502538168
162    2      9.652007287865306      5.593176373603177     11.881185718064076
163    2      5.729075533795450      5.485655690497437     11.488391050819351
164    2     21.194641180961838      7.808775663206164     11.316103995929618
165    2     15.339394491320311      2.380926042028972     11.455756530712794
166    2     11.759627015824634      2.272250517066545     11.488886694962424
167    2      7.544388523000721      2.272250211934030     11.488887039697667
168    2      3.964619811631596      2.380924694411493     11.455755667666272
169    2      5.754102722246403      3.384503828992243     12.890512155876486
170    2     13.549911450726235      3.384506128190640     12.890512890806901
171    2      9.652009302161344     10.060968903867003     12.889907428399690
172    2     19.304014913766196      6.887211096374079     12.403962099637276
173    2     15.431501418803803     13.424605880599769     12.932435193030933
174    2     23.176527100113262     13.424604595685588     12.932436643413251
0.000000000000000      0.000000000000000      0.000000000000000
19.304015126392748      0.000000000000000      0.000000000000000
9.652007563196374     16.717767494495188      0.000000000000000
0.000000000000000      0.000000000000000     37.821246761657591
}
Driver = ConjugateGradient {
  MaxForceComponent = 1E-4
  MaxSteps = 0
  LatticeOpt = No
  MovedAtoms = "1:-1"
  OutputPrefix = "geo_end"
  AppendGeometries = No
  ConvergentForcesOnly = Yes
  Constraints = {}
}
Hamiltonian = DFTB {
  Charge = 0
  EwaldParameter = 0.1
  Filling = Fermi {
    Temperature = 0.0036
    IndependentKFilling = No
  }
  KPointsAndWeights = {
0.  0.  0. 1.0
  }
  MaxAngularMomentum = {
    H = "s"
    Si = "p"
  }
  MaxSCCIterations = 100
  SCC = YES
  SlaterKosterFiles = Type2FileNames {
    Prefix = /user/panosetti/data/progs/DFTB/parameters/pbc/pbc-0-3/
    Separator = "-"
    Suffix = ".skf"
    LowerCaseTypeName = No
  }
  PolynomialRepulsive = {}
  OldRepulsiveSum = No
  OrbitalResolvedSCC = No
  OldSKInterpolation = No
  ReadInitialCharges = No
  InitialCharges = {}
  SCCTolerance = 1.000000000000000E-005
  Mixer = Broyden {
    MixingParameter = 0.200000000000000
    CachedIterations = -1
    InverseJacobiWeight = 1.000000000000000E-002
    MinimalWeight = 1.00000000000000
    MaximalWeight = 100000.000000000
    WeightFactor = 1.000000000000000E-002
  }
  ElectricField = {}
  DampXH = No
  SpinPolarisation = {}
  Eigensolver = DivideAndConquer {}
  Dispersion = {}
  ThirdOrder = No
  ThirdOrderFull = No
}
Options = {
  WriteResultsTag = Yes
  WriteEigenvectors = No
  WriteAutotestTag = No
  WriteDetailedXML = No
  WriteDetailedOut = Yes
  WriteBandOut = Yes
  AtomResolvedEnergies = No
  RandomSeed = 0
  WriteHS = No
  WriteRealHS = No
  MinimiseMemoryUsage = No
  ShowFoldedCoords = No
}
ParserOptions = {
  ParserVersion = 4
  WriteHSDInput = Yes
  WriteXMLInput = No
  StopAfterParsing = No
  IgnoreUnprocessedNodes = No
}
Analysis = {
  ProjectStates = {}
}
Parallel = {
  RowBlockSize = 32
  ColumnBlockSize = 32
  Groups = 1
}
