Geometry = GenFormat {
175  S
H    Si
1      1     23.157319411198838     15.595181392755858      2.862234378706447
2      1     19.304015135190678     15.614274874269102      2.861871395902638
3      1     15.450710845211594     15.595181376998566      2.862234477510820
4      1     11.590128440422376     15.598792024503458      2.860576172009183
5      1     27.017901799907726     15.598792019174814      2.860576117841932
6      1     21.236033996174605     12.260628941921860      2.862333297299407
7      1     17.371996264386585     12.260628942068767      2.862333306626559
8      1     13.523546532886373     12.257234908016498      2.862234416530393
9      1      9.652007558673281     12.226590490812185      2.861511965585379
10     1     25.084483719832697     12.257234908135157      2.862234404411998
11     1     19.304015130359836      8.914274087144577      2.862333368069209
12     1     15.433663289043574      8.910628698230749      2.861871405855677
13     1     11.584826347673133      8.903034284242253      2.862697752564225
14     1      7.719188777042335      8.903034286465630      2.862697800483502
15     1     23.174366966257800      8.910628706976746      2.861871476465924
16     1     17.376850872513174      5.583116074214107      2.862234465780579
17     1     13.502667852112920      5.581235425128732      2.862697737801176
18     1      9.652007584899289      5.572588302532886      2.861539727874765
19     1      5.801347270140726      5.581235434358598      2.862697897336291
20     1     21.231179368249219      5.583116085214486      2.862234552225986
21     1     15.414542487108553      2.245587237448245      2.861511932723670
22     1     11.569849059918772      2.233495111572455      2.862697744017555
23     1      7.734166073424205      2.233495105914950      2.862697855788367
24     1      3.889472626447769      2.245587235195857      2.861512091244154
25     1     19.304015124788560      2.237948559993647      2.860576193083803
26     2     23.164818151671295     15.603249661528842      4.364249352331518
27     2     19.304015126392745     15.603249661528842      4.364249352331518
28     2     15.443212101114195     15.603249661528841      4.364249352331518
29     2     11.582409075835645     15.603249661528841      4.364249352331518
30     2     27.025621176949844     15.603249661528841      4.364249352331518
31     2     21.234416639032020     12.259696162629805      4.364249352331518
32     2     17.373613613753470     12.259696162629805      4.364249352331518
33     2     13.512810588474920     12.259696162629803      4.364249352331518
34     2      9.652007563196371     12.259696162629803      4.364249352331518
35     2     25.095219664310569     12.259696162629803      4.364249352331518
36     2     19.304015126392745      8.916142663730767      4.364249352331518
37     2     15.443212101114195      8.916142663730767      4.364249352331518
38     2     11.582409075835645      8.916142663730765      4.364249352331518
39     2      7.721606050557096      8.916142663730765      4.364249352331518
40     2     23.164818151671295      8.916142663730763      4.364249352331518
41     2     17.373613613753470      5.572589164831729      4.364249352331518
42     2     13.512810588474922      5.572589164831728      4.364249352331518
43     2      9.652007563196372      5.572589164831728      4.364249352331518
44     2      5.791204537917821      5.572589164831728      4.364249352331518
45     2     21.234416639032020      5.572589164831728      4.364249352331518
46     2     15.443212101114197      2.229035665932690      4.364249352331518
47     2     11.582409075835647      2.229035665932690      4.364249352331518
48     2      7.721606050557098      2.229035665932690      4.364249352331518
49     2      3.860803025278546      2.229035665932690      4.364249352331518
50     2     19.304015126392745      2.229035665932688      4.364249352331518
51     2     21.234416639032020     14.488731828562496      5.152332469775356
52     2     17.373613613753470     14.488731828562496      5.152332469775356
53     2     13.512810588474920     14.488731828562495      5.152332469775356
54     2      9.652007563196371     14.488731828562495      5.152332469775356
55     2     25.095219664310569     14.488731828562495      5.152332469775356
56     2     19.304015126392745     11.145178329663459      5.152332469775356
57     2     15.443212101114195     11.145178329663459      5.152332469775356
58     2     11.582409075835645     11.145178329663457      5.152332469775356
59     2      7.721606050557096     11.145178329663457      5.152332469775356
60     2     23.164818151671295     11.145178329663455      5.152332469775356
61     2     17.373613613753470      7.801624830764419      5.152332469775356
62     2     13.512810588474922      7.801624830764419      5.152332469775356
63     2      9.652007563196372      7.801624830764418      5.152332469775356
64     2      5.791204537917821      7.801624830764418      5.152332469775356
65     2     21.234416639032020      7.801624830764418      5.152332469775356
66     2     15.443212101114197      4.458071331865382      5.152332469775356
67     2     11.582409075835647      4.458071331865382      5.152332469775356
68     2      7.721606050557098      4.458071331865382      5.152332469775356
69     2      3.860803025278546      4.458071331865382      5.152332469775356
70     2     19.304015126392745      4.458071331865380      5.152332469775356
71     2     13.512810588474922      1.114517832966346      5.152332469775356
72     2      9.652007563196372      1.114517832966346      5.152332469775356
73     2      5.791204537917821      1.114517832966346      5.152332469775356
74     2      1.930401512639271      1.114517832966346      5.152332469775356
75     2     17.373613613753474      1.114517832966344      5.152332469775356
76     2     21.234416639032020     14.488731828562496      7.516581822106875
77     2     17.373613613753470     14.488731828562496      7.516581822106875
78     2     13.512810588474920     14.488731828562495      7.516581822106875
79     2      9.652007563196371     14.488731828562495      7.516581822106875
80     2     25.095219664310569     14.488731828562495      7.516581822106875
81     2     19.304015126392745     11.145178329663459      7.516581822106875
82     2     15.443212101114195     11.145178329663459      7.516581822106875
83     2     11.582409075835645     11.145178329663457      7.516581822106875
84     2      7.721606050557096     11.145178329663457      7.516581822106875
85     2     23.164818151671295     11.145178329663455      7.516581822106875
86     2     17.373613613753470      7.801624830764419      7.516581822106875
87     2     13.512810588474922      7.801624830764419      7.516581822106875
88     2      9.652007563196372      7.801624830764418      7.516581822106875
89     2      5.791204537917821      7.801624830764418      7.516581822106875
90     2     21.234416639032020      7.801624830764418      7.516581822106875
91     2     15.443212101114197      4.458071331865382      7.516581822106875
92     2     11.582409075835647      4.458071331865382      7.516581822106875
93     2      7.721606050557098      4.458071331865382      7.516581822106875
94     2      3.860803025278546      4.458071331865382      7.516581822106875
95     2     19.304015126392745      4.458071331865380      7.516581822106875
96     2     13.512810588474922      1.114517832966346      7.516581822106875
97     2      9.652007563196372      1.114517832966346      7.516581822106875
98     2      5.791204537917821      1.114517832966346      7.516581822106875
99     2      1.930401512639271      1.114517832966346      7.516581822106875
100    2     17.373613613753474      1.114517832966344      7.516581822106875
101    2     23.164649950820664     13.374118266306235      8.063902279131703
102    2     19.304015146860454     13.374945471672198      8.397879059143790
103    2     15.443380276815610     13.374118370760916      8.063902401662229
104    2     11.582788354446617     13.352042093081952      8.347600217804128
105    2      7.721226772238489     13.352042120539032      8.347600213072058
106    2     21.235048620205262     10.030297480855934      8.397878179386677
107    2     17.372981660258521     10.030297473192491      8.397878124632358
108    2     13.495528989158350     10.059482333474270      8.378933007512558
109    2      9.652007569703260     10.033011829614159      8.047463434190465
110    2      5.808486128712546     10.059482361078064      8.378933123194182
111    2     19.304015203931606      6.687302593834268      8.063901610290459
112    2     15.459530505630202      6.657732357714462      8.378932560502742
113    2     11.593671148422779      6.693610749651842      8.397585223065741
114    2      7.710344014045844      6.693610757332538      8.397585288164514
115    2      3.844484532300104      6.657732224781829      8.378932795333492
116    2     17.354600260394555      3.354970236189865      8.347600039522066
117    2     13.514845685322124      3.342380047456716      8.047462757311127
118    2      9.652007587906430      3.330550825666388      8.397585875459857
119    2      5.789169388858865      3.342380009267484      8.047462918585509
120    2      1.949414915725793      3.354970353048476      8.347600282730964
121    2     15.423819850345673      0.010760181894797      8.347600773174467
122    2     11.616008669875708      0.000557840650874      8.378933764749144
123    2      7.688006316129877      0.000557851708540      8.378933885129705
124    2      3.880195426492789      0.010760180057815      8.347601022262889
125    2     -0.000000067494434      0.000002042818025      8.571397245316664
126    2     23.118509358859242     13.347478092363154     10.336740391428407
127    2     19.304015568044566     13.354037574498534     10.841509867257315
128    2     15.489520921450117     13.347477905866963     10.336741284683264
129    2     11.913448016880649     12.818275372791563     10.672881768671713
130    2      7.390566599044435     12.818275812735344     10.672881750909799
131    2     21.216941930460223     10.040752988819358     10.841508198701668
132    2     17.391088386615102     10.040752517061293     10.841508134763069
133    2     13.151158148812520     10.678354742113928     10.704348742244104
134    2      9.652007526106711      9.976470988447074     10.311442903626331
135    2      6.152856878071936     10.678355169593246     10.704348838745334
136    2     19.304014978484574      6.740582698018861     10.336740701148138
137    2     15.823306160510930      6.050063010954393     10.704347965663306
138    2     11.565885204032421      6.677567014618019     10.833457736331059
139    2      7.738130534226596      6.677567398888785     10.833457949907716
140    2      3.480708683272162      6.050063289918426     10.704348231971073
141    2     17.057673212731718      3.908212378814827     10.672881149376737
142    2     13.465881125039143      3.370650895199792     10.311441570883789
143    2      9.652008202819269      3.362635260464338     10.833459088703876
144    2      5.838133937401079      3.370650900889515     10.311444626512358
145    2      2.246341025741453      3.908212619764948     10.672881291418754
146    2     14.796235900933100     -0.008715817393557     10.672883059414868
147    2     12.324152099930229     -0.010645776509751     10.704350562713353
148    2      6.979863446820402     -0.010645860745685     10.704350733544016
149    2      4.507779114782788     -0.008716044787862     10.672883219880168
150    2     21.380588763606788     14.480203563797783     11.506210431286320
151    2     17.227441712327867     14.480202968897700     11.506210840768604
152    2     13.657025573625958     14.405468593585166     11.495465163084392
153    2     24.951004698873255     14.405469308443072     11.495464518966221
154    2      9.652007324981904     12.093745326240816     11.455553713595464
155    2     19.304015276524222     11.145178045194397     11.909644642311823
156    2     15.377511101573301     11.276029359284346     11.506211309190329
157    2     11.505228947360919      9.045684596811482     11.473674352618517
158    2      7.798786321360269      9.045685011341162     11.473674496816209
159    2     23.230519171633286     11.276029580417980     11.506211010181145
160    2     17.454083671646892      7.679301454890117     11.506209170885482
161    2     13.586405800517694      5.440982364749293     11.473674410924319
162    2      9.652008097833129      5.572592539112109     11.901988751706178
163    2      5.717609424784017      5.440981643864073     11.473675584612424
164    2     21.153945997568083      7.679301816572302     11.506209280924347
165    2     15.299492078814160      2.312015976956110     11.455553340741300
166    2     11.733185594169125      2.231110219800536     11.473674374433363
167    2      7.570829387585748      2.231110751474724     11.473675404361254
168    2      4.004523725787275      2.312016644518350     11.455554639565486
169    2     19.304014517948627      4.624596993630049     11.495463912783428
170    2      5.784744877796427      3.339826412260417     12.867059318124728
171    2     13.519270318414089      3.339826490580147     12.867058513498671
172    2      9.652007667085567     10.038119129993449     12.867057641658837
173    2     19.304014792785807      6.684234591006850     12.905736907815784
174    2     15.440721890961028     13.375652582267877     12.905740488487865
175    2     23.167308411791446     13.375652997684762     12.905739955268741
0.000000000000000      0.000000000000000      0.000000000000000
19.304015126392748      0.000000000000000      0.000000000000000
9.652007563196374     16.717767494495188      0.000000000000000
0.000000000000000      0.000000000000000     37.821246761657591
}
Driver = ConjugateGradient {
  MaxForceComponent = 1E-4
  MaxSteps = 0
  LatticeOpt = No
  MovedAtoms = "1:-1"
  OutputPrefix = "geo_end"
  AppendGeometries = No
  ConvergentForcesOnly = Yes
  Constraints = {}
}
Hamiltonian = DFTB {
  Charge = 0
  Filling = Fermi {
    Temperature = 0.001
    IndependentKFilling = No
  }
  KPointsAndWeights = {
-0.33333333 -0.33333333  0.         1.0
-0.33333333  0.          0.         1.0
-0.33333333  0.33333333  0.         1.0
0.         -0.33333333  0.         1.0
0.  0.  0. 1.0
0.          0.33333333  0.         1.0
0.33333333 -0.33333333  0.         1.0
0.33333333  0.          0.         1.0
0.33333333  0.33333333  0.         1.0
  }
  MaxAngularMomentum = {
    H = "s"
    Si = "p"
  }
  MaxSCCIterations = 100
  SCC = YES
  SlaterKosterFiles = Type2FileNames {
    Prefix = /user/panosetti/data/progs/DFTB/parameters/pbc/pbc-0-3/
    Separator = "-"
    Suffix = ".skf"
    LowerCaseTypeName = No
  }
  PolynomialRepulsive = {}
  OldRepulsiveSum = No
  OrbitalResolvedSCC = No
  OldSKInterpolation = No
  ReadInitialCharges = No
  InitialCharges = {}
  SCCTolerance = 1.000000000000000E-005
  Mixer = Broyden {
    MixingParameter = 0.200000000000000
    CachedIterations = -1
    InverseJacobiWeight = 1.000000000000000E-002
    MinimalWeight = 1.00000000000000
    MaximalWeight = 100000.000000000
    WeightFactor = 1.000000000000000E-002
  }
  ElectricField = {}
  DampXH = No
  EwaldParameter = 0.000000000000000E+000
  SpinPolarisation = {}
  Eigensolver = DivideAndConquer {}
  Dispersion = {}
  ThirdOrder = No
  ThirdOrderFull = No
}
Options = {
  WriteResultsTag = Yes
  WriteEigenvectors = No
  WriteAutotestTag = No
  WriteDetailedXML = No
  WriteDetailedOut = Yes
  WriteBandOut = Yes
  AtomResolvedEnergies = No
  RandomSeed = 0
  WriteHS = No
  WriteRealHS = No
  MinimiseMemoryUsage = No
  ShowFoldedCoords = No
}
ParserOptions = {
  ParserVersion = 4
  WriteHSDInput = Yes
  WriteXMLInput = No
  StopAfterParsing = No
  IgnoreUnprocessedNodes = No
}
Analysis = {
  ProjectStates = {}
}
Parallel = {
  RowBlockSize = 32
  ColumnBlockSize = 32
  Groups = 1
}
