Geometry = GenFormat {
61  S
H    Si
1      1     11.582409075835647      8.906309322142173      2.861931711395688
2      1      7.718508045882461      8.917930368849040      2.861259247486378
3      1     15.446310105788838      8.917930368849031      2.861259247486380
4      1      9.660522672401900      5.577504422577177      2.861931704475178
5      1      5.791204537917817      5.561949772975050      2.861407557836226
6      1     13.504295479269409      5.577504422577179      2.861931704475180
7      1      7.712392852791186      2.234353940465613      2.861407546699756
8      1      3.870016223044479      2.234353940465590      2.861407546699758
9      1     11.582409075835635      2.225457518195746      2.861259248360396
10     2     11.582409075835647      8.916142663730767      4.364249352331518
11     2      7.721606050557098      8.916142663730767      4.364249352331518
12     2     15.443212101114197      8.916142663730765      4.364249352331518
13     2      9.652007563196372      5.572589164831729      4.364249352331518
14     2      5.791204537917823      5.572589164831729      4.364249352331518
15     2     13.512810588474922      5.572589164831728      4.364249352331518
16     2      7.721606050557098      2.229035665932691      4.364249352331518
17     2      3.860803025278549      2.229035665932691      4.364249352331518
18     2     11.582409075835647      2.229035665932690      4.364249352331518
19     2      9.652007563196372      7.801624830764421      5.152332469775356
20     2      5.791204537917823      7.801624830764420      5.152332469775356
21     2     13.512810588474922      7.801624830764420      5.152332469775356
22     2      7.721606050557098      4.458071331865383      5.152332469775356
23     2      3.860803025278549      4.458071331865383      5.152332469775356
24     2     11.582409075835647      4.458071331865382      5.152332469775356
25     2      5.791204537917824      1.114517832966344      5.152332469775356
26     2      1.930401512639275      1.114517832966344      5.152332469775356
27     2      9.652007563196374      1.114517832966343      5.152332469775356
28     2      9.611189843198698      7.715356937366957      7.541585261791520
29     2      5.678814083702176      7.770213906453662      7.566887720530186
30     2     13.515937149772482      7.726842007504120      7.426686607767338
31     2      7.539006436936811      4.279793822622245      7.478926640400186
32     2      3.756755988049307      4.332833454883187      7.473582829951500
33     2     11.504890411883805      4.345618492336398      7.528451646014053
34     2      5.749078628523489      0.960012384069492      7.497342513608705
35     2      1.898473973118344      0.993453672925560      7.508475581050220
36     2      9.609268990134856      0.916061122968189      7.593987079163616
37     2     11.624122915995883      6.625789305144917      8.401099405627813
38     2      7.607341267427599      6.534774220061567      8.184698482608729
39     2      3.716068627598617      6.552443710258261      8.395756715938136
40     2      9.498071109514402      3.181608240457314      8.235418010778423
41     2      5.604532939048489      3.155550328518018      8.342608649742793
42     2      1.851043629326418      3.211249014510447      8.302327816483947
43     2      7.599373468535953     -0.211929519043689      8.480742760519659
44     2      3.826747824528794     -0.067078896550279      8.425659314346786
45     2      0.044948459285114     -0.053816463989671      8.555466184509253
46     2     10.375539742945604      5.732784623450411     10.228518439577758
47     2      7.702134632948897      5.956182397516073     10.639244456163777
48     2      1.921713853497197      5.966975617585506     10.359576730814068
49     2      8.945780087553864      3.758791011438490     10.504266477253788
50     2      4.623402340720284      2.986709057305197     10.518461799940299
51     2      2.243712426757419      3.375866271798726     10.621631370970912
52     2      6.087674225098908     -1.383900677037067     10.328403288862980
53     2      4.110189457349505      0.521869494929161     10.751317907365301
54     2      9.400063540551667      7.367137036104346     11.701780268230040
55     2     14.118935064038892      8.115209737980081     10.936886236603167
56     2      5.611237856236417      4.924741144406011     11.812761976341422
57     2      7.921813555151549      3.392970341859226     12.562303332480164
58     2      1.723809127950961      0.879284557974726     10.600285447519651
59     2     11.506725862059183      4.749232106680456     11.948070053246861
60     2      5.706236733666639      2.907653522333020     12.877911540963384
61     2      9.329149330992580      5.288256957935475     13.007504304313835
0.000000000000000      0.000000000000000      0.000000000000000
11.582409075835649      0.000000000000000      0.000000000000000
5.791204537917825     10.030660496697113      0.000000000000000
0.000000000000000      0.000000000000000     37.821246761657591
}
Driver = ConjugateGradient {
  MaxForceComponent = 1E-4
  MaxSteps = 0
  LatticeOpt = No
  MovedAtoms = "1:-1"
  OutputPrefix = "geo_end"
  AppendGeometries = No
  ConvergentForcesOnly = Yes
  Constraints = {}
}
Hamiltonian = DFTB {
  EwaldParameter = 0.5
  Filling = Fermi {
    Temperature = 0.01
    IndependentKFilling = No
  }
  KPointsAndWeights = {
-0.33333333 -0.33333333  0.         1.0
-0.33333333  0.          0.         1.0
-0.33333333  0.33333333  0.         1.0
0.         -0.33333333  0.         1.0
0. 0. 0. 1.0
0.         0.33333333 0.         1.0
0.33333333 -0.33333333  0.         1.0
0.33333333 0.         0.         1.0
0.33333333 0.33333333 0.         1.0
  }
  MaxAngularMomentum = {
    H = s
    Si = p
  }
  SCC = YES
  SlaterKosterFiles = Type2FileNames {
    Prefix = /user/panosetti/data/progs/DFTB/parameters/pbc/pbc-0-3/
    Separator = "-"
    Suffix = ".skf"
    LowerCaseTypeName = No
  }
  PolynomialRepulsive = {}
  OldRepulsiveSum = No
  OrbitalResolvedSCC = No
  OldSKInterpolation = No
  Charge = 0.000000000000000E+000
  ReadInitialCharges = No
  InitialCharges = {}
  SCCTolerance = 1.000000000000000E-005
  MaxSCCIterations = 100
  Mixer = Broyden {
    MixingParameter = 0.200000000000000
    CachedIterations = -1
    InverseJacobiWeight = 1.000000000000000E-002
    MinimalWeight = 1.00000000000000
    MaximalWeight = 100000.000000000
    WeightFactor = 1.000000000000000E-002
  }
  ElectricField = {}
  DampXH = No
  SpinPolarisation = {}
  Eigensolver = DivideAndConquer {}
  Dispersion = {}
  ManyBodyDispersion = {}
  ThirdOrder = No
  ThirdOrderFull = No
}
Options = {
  WriteResultsTag = Yes
  WriteEigenvectors = No
  WriteAutotestTag = No
  WriteDetailedXML = No
  WriteDetailedOut = Yes
  WriteBandOut = Yes
  AtomResolvedEnergies = No
  RandomSeed = 0
  WriteHS = No
  WriteRealHS = No
  WriteCPA = No
  MinimiseMemoryUsage = No
  ShowFoldedCoords = No
}
ParserOptions = {
  IgnoreUnprocessedNodes = Yes
  ParserVersion = 4
  WriteHSDInput = Yes
  WriteXMLInput = No
  StopAfterParsing = No
}
Analysis = {
  ProjectStates = {}
}
Parallel = {
  RowBlockSize = 32
  ColumnBlockSize = 32
  Groups = 1
}
