Geometry = GenFormat {
175  S
H    Si
1      1     23.159563534012406     15.593461892646456      2.862445521372294
2      1     19.304015126365687     15.615496741579513      2.862125406351699
3      1     15.448466718811467     15.593461892571558      2.862445520349703
4      1     11.583818288171981     15.602435104027451      2.861301052976379
5      1     27.024211964641857     15.602435104050377      2.861301053523920
6      1     21.235525528897625     12.260335322398944      2.862595286369770
7      1     17.372504723831831     12.260335322438378      2.862595286214895
8      1     13.523913504590142     12.260037970325214      2.862445459429108
9      1      9.652007563221954     12.237779537162110      2.861699590734358
10     1     25.084116748265565     12.260037970350245      2.862445459638467
11     1     19.304015126398866      8.914861198854146      2.862594736699131
12     1     15.432605064953366      8.910017715996442      2.862124878329276
13     1     11.585364847923916      8.902574403503674      2.862869726969103
14     1      7.718650278421846      8.902574403464682      2.862869726582890
15     1     23.175425187875739      8.910017715940048      2.862124877726080
16     1     17.379461964775082      5.582032254718849      2.862444675082192
17     1     13.502538887965320      5.581931615730987      2.862869474303843
18     1      9.652007563200319      5.572588299044152      2.861574647939492
19     1      5.801476238438566      5.581931615705780      2.862869472908299
20     1     21.228568287978277      5.582032254716300      2.862444674268959
21     1     15.424232552063145      2.239992580819965      2.861699205733392
22     1     11.569181609511265      2.233258624703363      2.862869778685449
23     1      7.734833516807877      2.233258624746860      2.862869777676123
24     1      3.879782574422271      2.239992580843940      2.861699204242740
25     1     19.304015126387167      2.230662126852698      2.861300593210755
26     2     23.164818151671295     15.603249661528842      4.364249352331518
27     2     19.304015126392745     15.603249661528842      4.364249352331518
28     2     15.443212101114195     15.603249661528841      4.364249352331518
29     2     11.582409075835645     15.603249661528841      4.364249352331518
30     2     27.025621176949844     15.603249661528841      4.364249352331518
31     2     21.234416639032020     12.259696162629805      4.364249352331518
32     2     17.373613613753470     12.259696162629805      4.364249352331518
33     2     13.512810588474920     12.259696162629803      4.364249352331518
34     2      9.652007563196371     12.259696162629803      4.364249352331518
35     2     25.095219664310569     12.259696162629803      4.364249352331518
36     2     19.304015126392745      8.916142663730767      4.364249352331518
37     2     15.443212101114195      8.916142663730767      4.364249352331518
38     2     11.582409075835645      8.916142663730765      4.364249352331518
39     2      7.721606050557096      8.916142663730765      4.364249352331518
40     2     23.164818151671295      8.916142663730763      4.364249352331518
41     2     17.373613613753470      5.572589164831729      4.364249352331518
42     2     13.512810588474922      5.572589164831728      4.364249352331518
43     2      9.652007563196372      5.572589164831728      4.364249352331518
44     2      5.791204537917821      5.572589164831728      4.364249352331518
45     2     21.234416639032020      5.572589164831728      4.364249352331518
46     2     15.443212101114197      2.229035665932690      4.364249352331518
47     2     11.582409075835647      2.229035665932690      4.364249352331518
48     2      7.721606050557098      2.229035665932690      4.364249352331518
49     2      3.860803025278546      2.229035665932690      4.364249352331518
50     2     19.304015126392745      2.229035665932688      4.364249352331518
51     2     21.234416639032020     14.488731828562496      5.152332469775356
52     2     17.373613613753470     14.488731828562496      5.152332469775356
53     2     13.512810588474920     14.488731828562495      5.152332469775356
54     2      9.652007563196371     14.488731828562495      5.152332469775356
55     2     25.095219664310569     14.488731828562495      5.152332469775356
56     2     19.304015126392745     11.145178329663459      5.152332469775356
57     2     15.443212101114195     11.145178329663459      5.152332469775356
58     2     11.582409075835645     11.145178329663457      5.152332469775356
59     2      7.721606050557096     11.145178329663457      5.152332469775356
60     2     23.164818151671295     11.145178329663455      5.152332469775356
61     2     17.373613613753470      7.801624830764419      5.152332469775356
62     2     13.512810588474922      7.801624830764419      5.152332469775356
63     2      9.652007563196372      7.801624830764418      5.152332469775356
64     2      5.791204537917821      7.801624830764418      5.152332469775356
65     2     21.234416639032020      7.801624830764418      5.152332469775356
66     2     15.443212101114197      4.458071331865382      5.152332469775356
67     2     11.582409075835647      4.458071331865382      5.152332469775356
68     2      7.721606050557098      4.458071331865382      5.152332469775356
69     2      3.860803025278546      4.458071331865382      5.152332469775356
70     2     19.304015126392745      4.458071331865380      5.152332469775356
71     2     13.512810588474922      1.114517832966346      5.152332469775356
72     2      9.652007563196372      1.114517832966346      5.152332469775356
73     2      5.791204537917821      1.114517832966346      5.152332469775356
74     2      1.930401512639271      1.114517832966346      5.152332469775356
75     2     17.373613613753474      1.114517832966344      5.152332469775356
76     2     21.234416639032020     14.488731828562496      7.516581822106875
77     2     17.373613613753470     14.488731828562496      7.516581822106875
78     2     13.512810588474920     14.488731828562495      7.516581822106875
79     2      9.652007563196371     14.488731828562495      7.516581822106875
80     2     25.095219664310569     14.488731828562495      7.516581822106875
81     2     19.304015126392745     11.145178329663459      7.516581822106875
82     2     15.443212101114195     11.145178329663459      7.516581822106875
83     2     11.582409075835645     11.145178329663457      7.516581822106875
84     2      7.721606050557096     11.145178329663457      7.516581822106875
85     2     23.164818151671295     11.145178329663455      7.516581822106875
86     2     17.373613613753470      7.801624830764419      7.516581822106875
87     2     13.512810588474922      7.801624830764419      7.516581822106875
88     2      9.652007563196372      7.801624830764418      7.516581822106875
89     2      5.791204537917821      7.801624830764418      7.516581822106875
90     2     21.234416639032020      7.801624830764418      7.516581822106875
91     2     15.443212101114197      4.458071331865382      7.516581822106875
92     2     11.582409075835647      4.458071331865382      7.516581822106875
93     2      7.721606050557098      4.458071331865382      7.516581822106875
94     2      3.860803025278546      4.458071331865382      7.516581822106875
95     2     19.304015126392745      4.458071331865380      7.516581822106875
96     2     13.512810588474922      1.114517832966346      7.516581822106875
97     2      9.652007563196372      1.114517832966346      7.516581822106875
98     2      5.791204537917821      1.114517832966346      7.516581822106875
99     2      1.930401512639271      1.114517832966346      7.516581822106875
100    2     17.373613613753474      1.114517832966344      7.516581822106875
101    2     23.164012069832562     13.373750393515653      8.068700882979625
102    2     19.304015126731887     13.374990034453083      8.400368491472975
103    2     15.444018183094657     13.373750393034701      8.068700874933635
104    2     11.585100773769863     13.352646286059489      8.351123224342169
105    2      7.718914351974110     13.352646286201669      8.351123228082150
106    2     21.235086801624689     10.030276397983538      8.400367357218107
107    2     17.372943450741843     10.030276397350146      8.400367354503429
108    2     13.495902805219439     10.060542932348781      8.379845148027707
109    2      9.652007563186830     10.032920362740882      8.053406193343804
110    2      5.808112321395408     10.060542933007801      8.379845152362860
111    2     19.304015126047148      6.688039083514687      8.068697748471937
112    2     15.460634839054741      6.657526472172774      8.379844002323741
113    2     11.593697875265855      6.693626191044423      8.400562309485622
114    2      7.710317252256146      6.693626191834163      8.400562308548437
115    2      3.843380287471911      6.657526473929621      8.379844001848038
116    2     17.356279429456901      3.356669562445400      8.351122377340420
117    2     13.514765995240461      3.342425440546408      8.053404624426062
118    2      9.652007564444997      3.330519292603775      8.400562759363289
119    2      5.789249131490307      3.342425440752623      8.053404618453580
120    2      1.947735694625114      3.356669561515047      8.351122374620266
121    2     15.423186552601653      0.008455247315102      8.351123696958020
122    2     11.616740019426357     -0.000296309150019      8.379845283467088
123    2      7.687275109236593     -0.000296309775288      8.379845278656433
124    2      3.880828571628727      0.008455246412004      8.351123690498168
125    2     -0.000000000667720      0.000001444903650      8.509816734276784
126    2     23.114481023847510     13.345152648066813     10.341037741345971
127    2     19.304015126647979     13.366238717642517     10.846165510030168
128    2     15.493549229427039     13.345152647805650     10.341037727087405
129    2     11.910822028664249     12.819937734987102     10.677524150443839
130    2      7.393193097971555     12.819937737591420     10.677524155867035
131    2     21.227507771344904     10.034654246263880     10.846163850826590
132    2     17.380522479194951     10.034654244672142     10.846163846874383
133    2     13.148174915835407     10.680008192578214     10.704843345910025
134    2      9.652007566087052      9.973580553582583     10.316901766708368
135    2      6.155840211810172     10.680008192620100     10.704843352310457
136    2     19.304015126410885      6.745233737918164     10.341036224190262
137    2     15.823244911772274      6.046652807206320     10.704842516835582
138    2     11.574683180412356      6.682647171779646     10.839233177696205
139    2      7.729331950380447      6.682647172128042     10.839233177537265
140    2      3.480770212513126      6.046652806666923     10.704842517442396
141    2     17.057798853403050      3.905105129729909     10.677523852558085
142    2     13.463377349604816      3.372095551079416     10.316900196177510
143    2      9.652007565698645      3.352474356087608     10.839234039052089
144    2      5.840637777500966      3.372095548153337     10.316900185112921
145    2      2.246216266594788      3.905105128585166     10.677523851687782
146    2     14.798987593718797     -0.007273744553254     10.677524965716396
147    2     12.327074787391176     -0.008889328873095     10.704844163110209
148    2      6.976940338143272     -0.008889331491212     10.704844157316828
149    2      4.505027530862204     -0.007273748427340     10.677524959422945
150    2     21.385466662486945     14.483430849662840     11.516039014231273
151    2     17.222563590403634     14.483430847864932     11.516039003540238
152    2     13.659554362864007     14.404008886436976     11.497259105867251
153    2     24.948475886062194     14.404008888045606     11.497259119405745
154    2      9.652007564904919     12.089985608087385     11.463000617208753
155    2     19.304015123168771     11.145179712800250     11.886069924743454
156    2     15.372276541450324     11.278640841131240     11.516040941372157
157    2     11.503821932022982      9.050032211470439     11.485247022272738
158    2      7.800193200819933      9.050032212871082     11.485247025910297
159    2     23.235753711031698     11.278640840279367     11.516040955405234
160    2     17.453725321579821      7.673465157843892     11.516041011304996
161    2     13.589465888418976      5.437589953447870     11.485247273331064
162    2      9.652007565620307      5.572591424322344     11.886573227852210
163    2      5.714549239580200      5.437589954280445     11.485247273371058
164    2     21.154304930285978      7.673465159522336     11.516041014646822
165    2     15.296235545109100      2.313893766426162     11.463000055708086
166    2     11.737653779013977      2.230154253077962     11.485245498040674
167    2      7.566361353341034      2.230154249168373     11.485245494441752
168    2      4.007779573714277      2.313893760082981     11.463000051023378
169    2     19.304015123070087      4.627511899608810     11.497260738737022
170    2      5.782721615066935      3.338657232813002     12.884586455702756
171    2     13.521293510042270      3.338657240242829     12.884586450242905
172    2      9.652007568988930     10.040455786504117     12.884585881846041
173    2     19.304015125815575      6.679539056568327     12.917331164498473
174    2     15.436656301653816     13.378001022385412     12.917326135641606
175    2     23.171373948285879     13.378001021408753     12.917326148846184
0.000000000000000      0.000000000000000      0.000000000000000
19.304015126392748      0.000000000000000      0.000000000000000
9.652007563196374     16.717767494495188      0.000000000000000
0.000000000000000      0.000000000000000     37.821246761657591
}
Driver = ConjugateGradient {
  MaxForceComponent = 1E-4
  MaxSteps = 0
  LatticeOpt = No
  MovedAtoms = "1:-1"
  OutputPrefix = "geo_end"
  AppendGeometries = No
  ConvergentForcesOnly = Yes
  Constraints = {}
}
Hamiltonian = DFTB {
  Charge = 0
  EwaldParameter = 0.1
  Filling = Fermi {
    Temperature = 0.0036
    IndependentKFilling = No
  }
  KPointsAndWeights = {
0.  0.  0. 1.0
  }
  MaxAngularMomentum = {
    H = "s"
    Si = "p"
  }
  MaxSCCIterations = 100
  SCC = YES
  SlaterKosterFiles = Type2FileNames {
    Prefix = /user/panosetti/data/progs/DFTB/parameters/pbc/pbc-0-3/
    Separator = "-"
    Suffix = ".skf"
    LowerCaseTypeName = No
  }
  PolynomialRepulsive = {}
  OldRepulsiveSum = No
  OrbitalResolvedSCC = No
  OldSKInterpolation = No
  ReadInitialCharges = No
  InitialCharges = {}
  SCCTolerance = 1.000000000000000E-005
  Mixer = Broyden {
    MixingParameter = 0.200000000000000
    CachedIterations = -1
    InverseJacobiWeight = 1.000000000000000E-002
    MinimalWeight = 1.00000000000000
    MaximalWeight = 100000.000000000
    WeightFactor = 1.000000000000000E-002
  }
  ElectricField = {}
  DampXH = No
  SpinPolarisation = {}
  Eigensolver = DivideAndConquer {}
  Dispersion = {}
  ThirdOrder = No
  ThirdOrderFull = No
}
Options = {
  WriteResultsTag = Yes
  WriteEigenvectors = No
  WriteAutotestTag = No
  WriteDetailedXML = No
  WriteDetailedOut = Yes
  WriteBandOut = Yes
  AtomResolvedEnergies = No
  RandomSeed = 0
  WriteHS = No
  WriteRealHS = No
  MinimiseMemoryUsage = No
  ShowFoldedCoords = No
}
ParserOptions = {
  ParserVersion = 4
  WriteHSDInput = Yes
  WriteXMLInput = No
  StopAfterParsing = No
  IgnoreUnprocessedNodes = No
}
Analysis = {
  ProjectStates = {}
}
Parallel = {
  RowBlockSize = 32
  ColumnBlockSize = 32
  Groups = 1
}
