Geometry = GenFormat {
343  S
H    Si
1      1      0.000000006030668      0.000000366033976      2.862661506312580
2      1      3.860803021697403      0.000000368014593      2.862661453117404
3      1      7.721606020048037      0.000000334776655      2.862661453571470
4      1     11.582409027311037      0.000000313127624      2.862661409295633
5      1     15.443212096428532      0.000000312025864      2.862661359987228
6      1     19.304015172719417      0.000000313657945      2.862661444672062
7      1     23.164818186614443      0.000000332441932      2.862661541020827
8      1      1.930401498489898      3.343553839994204      2.862661420188464
9      1      5.791204503680158      3.343553815307203      2.862661352236448
10     1      9.652007507734984      3.343553796024680      2.862661245944192
11     1     13.512810561067692      3.343553806531966      2.862661078601592
12     1     17.373613659115399      3.343553819978833      2.862661122247930
13     1     21.234416704181928      3.343553824404966      2.862661384774159
14     1     25.095219685054392      3.343553836734496      2.862661501677955
15     1      3.860802993567397      6.687107334947838      2.862661282076689
16     1      7.721605997290362      6.687107320385274      2.862661158680274
17     1     11.582409023666521      6.687107326497882      2.862660886876162
18     1     15.443212116440119      6.687107343394106      2.862660732766822
19     1     19.304015202130675      6.687107342082061      2.862660985690331
20     1     23.164818201417187      6.687107337023609      2.862661331740446
21     1     27.025621173287124      6.687107341134254      2.862661376099399
22     1      5.791204504834768     10.030660869082189      2.862661247329350
23     1      9.652007502419348     10.030660873736881      2.862661008670865
24     1     13.512810553191603     10.030660885737900      2.862660703431478
25     1     17.373613657532818     10.030660877563983      2.862660737348484
26     1     21.234416707037045     10.030660852184960      2.862661120661363
27     1     25.095219690618606     10.030660848784681      2.862661371284912
28     1     28.956022680640093     10.030660862287307      2.862661342328226
29     1      7.721606017592536     13.374214392105122      2.862661304493686
30     1     11.582409020008944     13.374214411648056      2.862661044221001
31     1     15.443212092069704     13.374214417936674      2.862660897470440
32     1     19.304015175508358     13.374214386549642      2.862661099033867
33     1     23.164818192301691     13.374214357679222      2.862661409064817
34     1     27.025621187436567     13.374214361714721      2.862661495964761
35     1     30.886424199831389     13.374214378415411      2.862661437165504
36     1      9.652007538548983     16.717767884478228      2.862661372657282
37     1     13.512810561262473     16.717767919907711      2.862661220953165
38     1     17.373613630584490     16.717767920346706      2.862661239245389
39     1     21.234416666079174     16.717767882609525      2.862661440791704
40     1     25.095219664282471     16.717767855241604      2.862661581444331
41     1     28.956022691342728     16.717767852149382      2.862661568494956
42     1     32.816825721123813     16.717767859649459      2.862661499979217
43     1     11.582409073464408     20.061321372336607      2.862661452937295
44     1     15.443212104557904     20.061321406852063      2.862661397404153
45     1     19.304015135524622     20.061321391215802      2.862661448062166
46     1     23.164818129995634     20.061321350645869      2.862661536598796
47     1     27.025621151229462     20.061321327936106      2.862661542084810
48     1     30.886424216669965     20.061321320823840      2.862661515191704
49     1     34.747227250257154     20.061321331359849      2.862661506801639
50     2      0.000000000000000      0.000000000000000      4.364249352331518
51     2      3.860803025278550      0.000000000000000      4.364249352331518
52     2      7.721606050557099      0.000000000000000      4.364249352331518
53     2     11.582409075835649      0.000000000000000      4.364249352331518
54     2     15.443212101114199      0.000000000000000      4.364249352331518
55     2     19.304015126392748      0.000000000000000      4.364249352331518
56     2     23.164818151671298      0.000000000000000      4.364249352331518
57     2      1.930401512639275      3.343553498899038      4.364249352331518
58     2      5.791204537917825      3.343553498899038      4.364249352331518
59     2      9.652007563196374      3.343553498899038      4.364249352331518
60     2     13.512810588474924      3.343553498899038      4.364249352331518
61     2     17.373613613753474      3.343553498899038      4.364249352331518
62     2     21.234416639032023      3.343553498899038      4.364249352331518
63     2     25.095219664310573      3.343553498899038      4.364249352331518
64     2      3.860803025278550      6.687106997798075      4.364249352331518
65     2      7.721606050557099      6.687106997798075      4.364249352331518
66     2     11.582409075835649      6.687106997798075      4.364249352331518
67     2     15.443212101114199      6.687106997798075      4.364249352331518
68     2     19.304015126392748      6.687106997798075      4.364249352331518
69     2     23.164818151671298      6.687106997798075      4.364249352331518
70     2     27.025621176949848      6.687106997798075      4.364249352331518
71     2      5.791204537917825     10.030660496697113      4.364249352331518
72     2      9.652007563196374     10.030660496697113      4.364249352331518
73     2     13.512810588474924     10.030660496697113      4.364249352331518
74     2     17.373613613753474     10.030660496697113      4.364249352331518
75     2     21.234416639032023     10.030660496697113      4.364249352331518
76     2     25.095219664310573     10.030660496697113      4.364249352331518
77     2     28.956022689589123     10.030660496697113      4.364249352331518
78     2      7.721606050557099     13.374213995596151      4.364249352331518
79     2     11.582409075835649     13.374213995596151      4.364249352331518
80     2     15.443212101114199     13.374213995596151      4.364249352331518
81     2     19.304015126392748     13.374213995596151      4.364249352331518
82     2     23.164818151671298     13.374213995596151      4.364249352331518
83     2     27.025621176949848     13.374213995596151      4.364249352331518
84     2     30.886424202228397     13.374213995596151      4.364249352331518
85     2      9.652007563196374     16.717767494495188      4.364249352331518
86     2     13.512810588474924     16.717767494495188      4.364249352331518
87     2     17.373613613753474     16.717767494495188      4.364249352331518
88     2     21.234416639032023     16.717767494495188      4.364249352331518
89     2     25.095219664310573     16.717767494495188      4.364249352331518
90     2     28.956022689589123     16.717767494495188      4.364249352331518
91     2     32.816825714867676     16.717767494495188      4.364249352331518
92     2     11.582409075835649     20.061320993394226      4.364249352331518
93     2     15.443212101114199     20.061320993394226      4.364249352331518
94     2     19.304015126392748     20.061320993394226      4.364249352331518
95     2     23.164818151671298     20.061320993394226      4.364249352331518
96     2     27.025621176949848     20.061320993394226      4.364249352331518
97     2     30.886424202228397     20.061320993394226      4.364249352331518
98     2     34.747227227506947     20.061320993394226      4.364249352331518
99     2      1.930401512639275      1.114517832966346      5.152332469775356
100    2      5.791204537917825      1.114517832966346      5.152332469775356
101    2      9.652007563196374      1.114517832966346      5.152332469775356
102    2     13.512810588474924      1.114517832966346      5.152332469775356
103    2     17.373613613753474      1.114517832966346      5.152332469775356
104    2     21.234416639032023      1.114517832966346      5.152332469775356
105    2     25.095219664310573      1.114517832966346      5.152332469775356
106    2      3.860803025278550      4.458071331865384      5.152332469775356
107    2      7.721606050557099      4.458071331865384      5.152332469775356
108    2     11.582409075835649      4.458071331865384      5.152332469775356
109    2     15.443212101114199      4.458071331865384      5.152332469775356
110    2     19.304015126392748      4.458071331865384      5.152332469775356
111    2     23.164818151671298      4.458071331865384      5.152332469775356
112    2     27.025621176949848      4.458071331865384      5.152332469775356
113    2      5.791204537917825      7.801624830764422      5.152332469775356
114    2      9.652007563196374      7.801624830764422      5.152332469775356
115    2     13.512810588474924      7.801624830764422      5.152332469775356
116    2     17.373613613753474      7.801624830764422      5.152332469775356
117    2     21.234416639032023      7.801624830764422      5.152332469775356
118    2     25.095219664310573      7.801624830764422      5.152332469775356
119    2     28.956022689589123      7.801624830764422      5.152332469775356
120    2      7.721606050557099     11.145178329663459      5.152332469775356
121    2     11.582409075835649     11.145178329663459      5.152332469775356
122    2     15.443212101114199     11.145178329663459      5.152332469775356
123    2     19.304015126392748     11.145178329663459      5.152332469775356
124    2     23.164818151671298     11.145178329663459      5.152332469775356
125    2     27.025621176949848     11.145178329663459      5.152332469775356
126    2     30.886424202228397     11.145178329663459      5.152332469775356
127    2      9.652007563196374     14.488731828562495      5.152332469775356
128    2     13.512810588474924     14.488731828562495      5.152332469775356
129    2     17.373613613753474     14.488731828562495      5.152332469775356
130    2     21.234416639032023     14.488731828562495      5.152332469775356
131    2     25.095219664310569     14.488731828562495      5.152332469775356
132    2     28.956022689589119     14.488731828562495      5.152332469775356
133    2     32.816825714867669     14.488731828562495      5.152332469775356
134    2     11.582409075835649     17.832285327461534      5.152332469775356
135    2     15.443212101114199     17.832285327461534      5.152332469775356
136    2     19.304015126392748     17.832285327461534      5.152332469775356
137    2     23.164818151671298     17.832285327461534      5.152332469775356
138    2     27.025621176949848     17.832285327461534      5.152332469775356
139    2     30.886424202228397     17.832285327461534      5.152332469775356
140    2     34.747227227506947     17.832285327461534      5.152332469775356
141    2     13.512810588474924     21.175838826360572      5.152332469775356
142    2     17.373613613753474     21.175838826360572      5.152332469775356
143    2     21.234416639032023     21.175838826360572      5.152332469775356
144    2     25.095219664310573     21.175838826360572      5.152332469775356
145    2     28.956022689589119     21.175838826360572      5.152332469775356
146    2     32.816825714867669     21.175838826360572      5.152332469775356
147    2     36.677628740146218     21.175838826360572      5.152332469775356
148    2      1.930401512639275      1.114517832966346      7.516581822106875
149    2      5.791204537917825      1.114517832966346      7.516581822106875
150    2      9.652007563196374      1.114517832966346      7.516581822106875
151    2     13.512810588474924      1.114517832966346      7.516581822106875
152    2     17.373613613753474      1.114517832966346      7.516581822106875
153    2     21.234416639032023      1.114517832966346      7.516581822106875
154    2     25.095219664310573      1.114517832966346      7.516581822106875
155    2      3.860803025278550      4.458071331865384      7.516581822106875
156    2      7.721606050557099      4.458071331865384      7.516581822106875
157    2     11.582409075835649      4.458071331865384      7.516581822106875
158    2     15.443212101114199      4.458071331865384      7.516581822106875
159    2     19.304015126392748      4.458071331865384      7.516581822106875
160    2     23.164818151671298      4.458071331865384      7.516581822106875
161    2     27.025621176949848      4.458071331865384      7.516581822106875
162    2      5.791204537917825      7.801624830764422      7.516581822106875
163    2      9.652007563196374      7.801624830764422      7.516581822106875
164    2     13.512810588474924      7.801624830764422      7.516581822106875
165    2     17.373613613753474      7.801624830764422      7.516581822106875
166    2     21.234416639032023      7.801624830764422      7.516581822106875
167    2     25.095219664310573      7.801624830764422      7.516581822106875
168    2     28.956022689589123      7.801624830764422      7.516581822106875
169    2      7.721606050557099     11.145178329663459      7.516581822106875
170    2     11.582409075835649     11.145178329663459      7.516581822106875
171    2     15.443212101114199     11.145178329663459      7.516581822106875
172    2     19.304015126392748     11.145178329663459      7.516581822106875
173    2     23.164818151671298     11.145178329663459      7.516581822106875
174    2     27.025621176949848     11.145178329663459      7.516581822106875
175    2     30.886424202228397     11.145178329663459      7.516581822106875
176    2      9.652007563196374     14.488731828562495      7.516581822106875
177    2     13.512810588474924     14.488731828562495      7.516581822106875
178    2     17.373613613753474     14.488731828562495      7.516581822106875
179    2     21.234416639032023     14.488731828562495      7.516581822106875
180    2     25.095219664310569     14.488731828562495      7.516581822106875
181    2     28.956022689589119     14.488731828562495      7.516581822106875
182    2     32.816825714867669     14.488731828562495      7.516581822106875
183    2     11.582409075835649     17.832285327461534      7.516581822106875
184    2     15.443212101114199     17.832285327461534      7.516581822106875
185    2     19.304015126392748     17.832285327461534      7.516581822106875
186    2     23.164818151671298     17.832285327461534      7.516581822106875
187    2     27.025621176949848     17.832285327461534      7.516581822106875
188    2     30.886424202228397     17.832285327461534      7.516581822106875
189    2     34.747227227506947     17.832285327461534      7.516581822106875
190    2     13.512810588474924     21.175838826360572      7.516581822106875
191    2     17.373613613753474     21.175838826360572      7.516581822106875
192    2     21.234416639032023     21.175838826360572      7.516581822106875
193    2     25.095219664310573     21.175838826360572      7.516581822106875
194    2     28.956022689589119     21.175838826360572      7.516581822106875
195    2     32.816825714867669     21.175838826360572      7.516581822106875
196    2     36.677628740146218     21.175838826360572      7.516581822106875
197    2     -0.000000034461376      2.229033961224675      8.307204241917132
198    2      3.860802946304105      2.229033934804420      8.307204215702603
199    2      7.721605924482175      2.229033873088521      8.307204418664384
200    2     11.582408890086263      2.229033751507226      8.307204888486270
201    2     15.443212105960109      2.229033678392823      8.307205147584506
202    2     19.304015377007378      2.229033763779680      8.307204876090408
203    2     23.164818321470840      2.229033912891367      8.307204440910844
204    2      1.930401431846009      5.572587538839537      8.307204204880060
205    2      5.791204391893514      5.572587517010217      8.307204512922524
206    2      9.652007294847149      5.572587414354093      8.307204954272018
207    2     13.512810418308625      5.572587285498666      8.307205182591204
208    2     17.373613828376083      5.572587265233845      8.307204937857835
209    2     21.234416988188773      5.572587388452036      8.307204431127774
210    2     25.095219765863725      5.572587516452895      8.307204124634829
211    2      3.860802901133674      8.916141236461629      8.307204428845118
212    2      7.721605764636645      8.916141202598805      8.307204788712593
213    2     11.582408730850474      8.916141114866301      8.307205071493108
214    2     15.443212099530513      8.916141059702340      8.307204969412542
215    2     19.304015524217117      8.916141090543485      8.307204577161183
216    2     23.164818483298529      8.916141196866613      8.307204217214498
217    2     27.025621204131713      8.916141242239181      8.307204196440690
218    2      5.791204317043186     12.259694839885592      8.307204436626826
219    2      9.652007173256818     12.259694880540692      8.307204693886844
220    2     13.512810355038638     12.259694910217700      8.307204942818833
221    2     17.373613846418067     12.259694907519567      8.307204887766124
222    2     21.234417097658369     12.259694896002452      8.307204612272445
223    2     25.095219872178657     12.259694871902191      8.307204421283355
224    2     28.956022634680568     12.259694824510651      8.307204389831991
225    2      7.721605788979206     15.603248317093854      8.307204281414174
226    2     11.582408778016966     15.603248492126680      8.307204579308030
227    2     15.443212100287328     15.603248559085959      8.307204863977587
228    2     19.304015479671236     15.603248474284033      8.307204800063230
229    2     23.164818457133684     15.603248323245236      8.307204620838162
230    2     27.025621198818659     15.603248194898411      8.307204518312876
231    2     30.886424081842378     15.603248182635703      8.307204341965074
232    2      9.652007432550782     18.946801769651305      8.307204334112853
233    2     13.512810487701785     18.946801911741822      8.307204536955044
234    2     17.373613728614718     18.946801867347169      8.307204551786121
235    2     21.234416844422604     18.946801691199038      8.307204414534159
236    2     25.095219703579922     18.946801498069949      8.307204472038611
237    2     28.956022625271565     18.946801419359073      8.307204521038146
238    2     32.816825651082802     18.946801538002934      8.307204355086999
239    2     11.582409070910558     22.290355121132755      8.307204418997030
240    2     15.443212065017887     22.290355121500919      8.307204339423745
241    2     19.304015144297448     22.290355035771636      8.307204200808584
242    2     23.164818107505152     22.290354894543913      8.307204343181795
243    2     27.025621090382376     22.290354767515467      8.307204730746381
244    2     30.886424248570179     22.290354793988172      8.307204807880231
245    2     34.747227335015580     22.290354976129134      8.307204563390563
246    2      0.000000101657299      2.229035651493224     10.684955091589648
247    2      3.860802570869299      2.229035673092072     10.684955016566095
248    2      7.721605191726125      2.229035282154099     10.684955305948099
249    2     11.582408192148968      2.229034888487561     10.684956300040611
250    2     15.443212164882890      2.229034798378261     10.684957016309397
251    2     19.304016219932027      2.229034961504618     10.684956465766485
252    2     23.164819089633379      2.229035282475035     10.684955489590818
253    2      1.930401319413317      5.572589167079923     10.684955281172657
254    2      5.791203666626322      5.572589031540009     10.684955697563719
255    2      9.652006244614885      5.572588736987524     10.684956588015877
256    2     13.512809862325755      5.572588602521525     10.684957471071252
257    2     17.373614452363455      5.572588612767555     10.684957223362202
258    2     21.234418142551927      5.572588709063854     10.684956009286218
259    2     25.095220431427155      5.572588957157278     10.684955219218027
260    2      3.860802451394051      8.916143175927530     10.684955639712186
261    2      7.721604771563356      8.916143086213660     10.684956316818877
262    2     11.582407723851224      8.916143132776471     10.684957281457011
263    2     15.443212095227530      8.916143246047438     10.684957574510022
264    2     19.304016608890144      8.916143138122992     10.684956667261810
265    2     23.164819538799112      8.916143038297857     10.684955522055716
266    2     27.025621518073418      8.916143129302892     10.684955281762052
267    2      5.791203730091444     12.259697175747892     10.684955520569279
268    2      9.652006308379528     12.259697478409670     10.684956199364779
269    2     13.512809869836980     12.259697933745946     10.684957088154503
270    2     17.373614371232815     12.259697953337186     10.684957070701783
271    2     21.234418067541686     12.259697463664519     10.684956132193763
272    2     25.095220404825390     12.259697109032642     10.684955437617109
273    2     28.956022544367851     12.259697071030166     10.684955376270857
274    2      7.721605490509734     15.603250879152515     10.684955118196841
275    2     11.582408397703826     15.603251606040933     10.684955797888966
276    2     15.443212095330866     15.603252007812344     10.684956489849609
277    2     19.304015926391365     15.603251540690456     10.684956245752334
278    2     23.164818815183995     15.603250734121362     10.684955635547080
279    2     27.025621226277867     15.603250350275887     10.684955399551180
280    2     30.886423933353075     15.603250427341885     10.684955186567462
281    2      9.652007569000840     18.946804243037214     10.684955052474612
282    2     13.512810413377155     18.946804920234012     10.684955447933191
283    2     17.373613691582182     18.946804855113548     10.684955560266596
284    2     21.234416783980638     18.946804052436814     10.684955269255735
285    2     25.095219531233628     18.946803330543116     10.684955343512980
286    2     28.956022594557972     18.946803178377255     10.684955511646322
287    2     32.816825889492236     18.946803516191991     10.684955199989268
288    2     11.582409327636864     22.290357236945955     10.684955147184573
289    2     15.443211925986688     22.290357530664874     10.684955058022991
290    2     19.304014788803837     22.290357161535454     10.684954857090906
291    2     23.164817606380208     22.290356485471001     10.684955128427454
292    2     27.025620825408872     22.290356121675710     10.684955940795314
293    2     30.886424608758826     22.290356221511114     10.684956122783433
294    2     34.747227978724567     22.290356643845605     10.684955523067751
295    2     -0.000000034741234     -0.000001247267024     11.436518087484854
296    2      3.860802929661114     -0.000001370102366     11.436518139134344
297    2      7.721605632172392     -0.000001848549444     11.436517741026421
298    2     11.582408222913413     -0.000002608450279     11.436519873194928
299    2     15.443211982347888     -0.000002996256474     11.436522355109636
300    2     19.304016024790169     -0.000002470351708     11.436520872542848
301    2     23.164818773707424     -0.000001614004317     11.436518305287054
302    2      1.930401319959308      3.343551728949878     11.436519340242409
303    2      5.791203885360945      3.343551478164042     11.436519519927904
304    2      9.652006248754422      3.343550976227183     11.436521063800807
305    2     13.512809730558448      3.343550413633535     11.436524761989100
306    2     17.373614499650255      3.343550522263955     11.436524904863594
307    2     21.234418184588751      3.343551265981512     11.436520826115485
308    2     25.095220250452456      3.343551760304112     11.436518766354927
309    2      3.860802383161397      6.687105685662861     11.436521275998741
310    2      7.721604634444665      6.687105500256241     11.436522367799677
311    2     11.582407459644902      6.687105060306488     11.436526100383494
312    2     15.443212210632648      6.687104755491413     11.436528739428985
313    2     19.304017048635039      6.687105087594730     11.436525073670515
314    2     23.164819659254857      6.687105606623080     11.436520429201238
315    2     27.025621312022395      6.687105760005717     11.436520197941720
316    2      5.791203394209085     10.030660121278991     11.436521270933007
317    2      9.652005670000801     10.030660212933951     11.436523954607598
318    2     13.512809534602470     10.030660043726922     11.436528552214757
319    2     17.373614929828811     10.030659920317628     11.436528245967132
320    2     21.234418820438353     10.030659999409185     11.436522770355529
321    2     25.095220584416541     10.030660011233721     11.436519786204180
322    2     28.956022362776945     10.030659983883051     11.436520403398754
323    2      7.721604666802471     13.374214151731451     11.436519712432320
324    2     11.582407432947548     13.374214659674566     11.436523429923124
325    2     15.443212098615154     13.374214724546599     11.436526627392267
326    2     19.304016952876431     13.374214441916122     11.436524082422638
327    2     23.164819685032690     13.374213958250289     11.436519742220979
328    2     27.025621416048139     13.374213521133461     11.436518628619302
329    2     30.886423632428421     13.374213582425492     11.436518942166929
330    2      9.652006486217017     16.717767562733506     11.436518684857536
331    2     13.512809787659840     16.717768222505708     11.436521670755571
332    2     17.373614299677701     16.717768165381095     11.436522415715819
333    2     21.234417922536878     16.717767495985647     11.436519639145205
334    2     25.095220136607992     16.717766576640816     11.436518068563014
335    2     28.956022568043533     16.717766099611062     11.436518431970526
336    2     32.816825272481736     16.717766567825578     11.436518036682958
337    2     11.582408668464327     20.061320588727039     11.436518296667371
338    2     15.443211995164299     20.061320884753759     11.436519451312551
339    2     19.304015594934288     20.061320528837015     11.436518575106254
340    2     23.164818250528146     20.061319666727037     11.436517732552634
341    2     27.025620901305487     20.061318814703455     11.436519288633782
342    2     30.886424323298314     20.061318788940589     11.436519764449020
343    2     34.747227328004122     20.061319672664425     11.436518238167727
0.000000000000000      0.000000000000000      0.000000000000000
27.025621176949848      0.000000000000000      0.000000000000000
13.512810588474924     23.404874492293263      0.000000000000000
0.000000000000000      0.000000000000000     37.821246761657591
}
Driver = ConjugateGradient {
  MaxForceComponent = 1E-4
  MaxSteps = 0
  LatticeOpt = No
  MovedAtoms = "1:-1"
  OutputPrefix = "geo_end"
  AppendGeometries = No
  ConvergentForcesOnly = Yes
  Constraints = {}
}
Hamiltonian = DFTB {
  Charge = 0
  EwaldParameter = 0.1
  Filling = Fermi {
    Temperature = 0.0036
    IndependentKFilling = No
  }
  KPointsAndWeights = {
0.  0.  0. 1.0
  }
  MaxAngularMomentum = {
    H = "s"
    Si = "p"
  }
  MaxSCCIterations = 100
  SCC = YES
  SlaterKosterFiles = Type2FileNames {
    Prefix = /user/panosetti/data/progs/DFTB/parameters/pbc/pbc-0-3/
    Separator = "-"
    Suffix = ".skf"
    LowerCaseTypeName = No
  }
  PolynomialRepulsive = {}
  OldRepulsiveSum = No
  OrbitalResolvedSCC = No
  OldSKInterpolation = No
  ReadInitialCharges = No
  InitialCharges = {}
  SCCTolerance = 1.000000000000000E-005
  Mixer = Broyden {
    MixingParameter = 0.200000000000000
    CachedIterations = -1
    InverseJacobiWeight = 1.000000000000000E-002
    MinimalWeight = 1.00000000000000
    MaximalWeight = 100000.000000000
    WeightFactor = 1.000000000000000E-002
  }
  ElectricField = {}
  DampXH = No
  SpinPolarisation = {}
  Eigensolver = DivideAndConquer {}
  Dispersion = {}
  ThirdOrder = No
  ThirdOrderFull = No
}
Options = {
  WriteResultsTag = Yes
  WriteEigenvectors = No
  WriteAutotestTag = No
  WriteDetailedXML = No
  WriteDetailedOut = Yes
  WriteBandOut = Yes
  AtomResolvedEnergies = No
  RandomSeed = 0
  WriteHS = No
  WriteRealHS = No
  MinimiseMemoryUsage = No
  ShowFoldedCoords = No
}
ParserOptions = {
  ParserVersion = 4
  WriteHSDInput = Yes
  WriteXMLInput = No
  StopAfterParsing = No
  IgnoreUnprocessedNodes = No
}
Analysis = {
  ProjectStates = {}
}
Parallel = {
  RowBlockSize = 32
  ColumnBlockSize = 32
  Groups = 1
}
