Geometry = GenFormat {
61  S
H    Si
1      1     11.582409075835647      8.906309322142173      2.861931711395688
2      1      7.718508045882461      8.917930368849040      2.861259247486378
3      1     15.446310105788838      8.917930368849031      2.861259247486380
4      1      9.660522672401900      5.577504422577177      2.861931704475178
5      1      5.791204537917817      5.561949772975050      2.861407557836226
6      1     13.504295479269409      5.577504422577179      2.861931704475180
7      1      7.712392852791186      2.234353940465613      2.861407546699756
8      1      3.870016223044479      2.234353940465590      2.861407546699758
9      1     11.582409075835635      2.225457518195746      2.861259248360396
10     2     11.582409075835647      8.916142663730767      4.364249352331518
11     2      7.721606050557098      8.916142663730767      4.364249352331518
12     2     15.443212101114197      8.916142663730765      4.364249352331518
13     2      9.652007563196372      5.572589164831729      4.364249352331518
14     2      5.791204537917823      5.572589164831729      4.364249352331518
15     2     13.512810588474922      5.572589164831728      4.364249352331518
16     2      7.721606050557098      2.229035665932691      4.364249352331518
17     2      3.860803025278549      2.229035665932691      4.364249352331518
18     2     11.582409075835647      2.229035665932690      4.364249352331518
19     2      9.652007563196372      7.801624830764421      5.152332469775356
20     2      5.791204537917823      7.801624830764420      5.152332469775356
21     2     13.512810588474922      7.801624830764420      5.152332469775356
22     2      7.721606050557098      4.458071331865383      5.152332469775356
23     2      3.860803025278549      4.458071331865383      5.152332469775356
24     2     11.582409075835647      4.458071331865382      5.152332469775356
25     2      5.791204537917824      1.114517832966344      5.152332469775356
26     2      1.930401512639275      1.114517832966344      5.152332469775356
27     2      9.652007563196374      1.114517832966343      5.152332469775356
28     2      9.423708999752023      7.561257974059147      7.526147912598319
29     2      5.699863679707588      7.661529274297151      7.589016031177993
30     2     13.393985608092050      7.593479207028746      7.471902700540284
31     2      7.632372631004405      4.300690191762724      7.555864467726317
32     2      3.694025998642681      4.275092593907436      7.432723344048816
33     2     11.382936580290716      4.195962426132316      7.515945694825378
34     2      5.646618551447048      0.870043793575417      7.430351359869072
35     2      1.729960714903006      0.866837636190131      7.500512193156411
36     2      9.576983251639623      0.913622883148234      7.576000514836069
37     2     11.410235200700601      6.452736932714361      8.255166126778365
38     2      7.501387967792796      6.463433015078936      8.632866996735231
39     2      3.715225986230956      6.460354843696578      8.283271785224660
40     2      9.454879621805132      3.079892870345211      8.577527437583642
41     2      5.648714781809438      3.127779873852237      8.030035160327364
42     2      1.773739853107300      3.104748947529817      8.209737960410806
43     2      7.548999562950868     -0.227747894983390      8.265103085536497
44     2      3.688103458412193     -0.228362792657715      8.230196357704157
45     2     -0.132978076364580     -0.194058800344918      8.583193363665167
46     2     10.418085712486931      5.731242295162113     10.328530842694247
47     2      7.070993906796070      6.413910097525859     11.096781152770662
48     2      2.918567338937750      5.616741677567241     10.563445134721276
49     2      9.158939292339808      2.801930807513416     11.008937980680043
50     2      5.701908371776147      3.014033962052129     10.351190643999015
51     2      1.902265153760016      3.392566906362646     10.604255816426043
52     2      6.471905277508994     -0.676759228951230     10.513933005513358
53     2      4.039224941323448     -0.436107103901332     10.636171686114873
54     2      9.323251981086198      7.362737000948811     11.734425329137936
55     2     12.563843809332807      7.008491360054792     11.094143349365279
56     2      5.093994162425153      4.973505367819749     11.597943518870229
57     2      7.103004605351007      1.473024266519858     11.562215082074237
58     2      3.740893534223195      1.916407548715908     11.305911529389528
59     2     11.322527412768624      3.929675458616894     11.709075182480573
60     2      5.396752309562129      2.824956507636343     12.914696258475143
61     2     11.194435422929619      6.140537914722832     12.858547956739248
0.000000000000000      0.000000000000000      0.000000000000000
11.582409075835649      0.000000000000000      0.000000000000000
5.791204537917825     10.030660496697113      0.000000000000000
0.000000000000000      0.000000000000000     37.821246761657591
}
Driver = ConjugateGradient {
  MaxForceComponent = 1E-4
  MaxSteps = 0
  LatticeOpt = No
  MovedAtoms = "1:-1"
  OutputPrefix = "geo_end"
  AppendGeometries = No
  ConvergentForcesOnly = Yes
  Constraints = {}
}
Hamiltonian = DFTB {
  EwaldParameter = 0.5
  Filling = Fermi {
    Temperature = 0.01
    IndependentKFilling = No
  }
  KPointsAndWeights = {
-0.33333333 -0.33333333  0.         1.0
-0.33333333  0.          0.         1.0
-0.33333333  0.33333333  0.         1.0
0.         -0.33333333  0.         1.0
0. 0. 0. 1.0
0.         0.33333333 0.         1.0
0.33333333 -0.33333333  0.         1.0
0.33333333 0.         0.         1.0
0.33333333 0.33333333 0.         1.0
  }
  MaxAngularMomentum = {
    H = s
    Si = p
  }
  SCC = YES
  SlaterKosterFiles = Type2FileNames {
    Prefix = /user/panosetti/data/progs/DFTB/parameters/pbc/pbc-0-3/
    Separator = "-"
    Suffix = ".skf"
    LowerCaseTypeName = No
  }
  PolynomialRepulsive = {}
  OldRepulsiveSum = No
  OrbitalResolvedSCC = No
  OldSKInterpolation = No
  Charge = 0.000000000000000E+000
  ReadInitialCharges = No
  InitialCharges = {}
  SCCTolerance = 1.000000000000000E-005
  MaxSCCIterations = 100
  Mixer = Broyden {
    MixingParameter = 0.200000000000000
    CachedIterations = -1
    InverseJacobiWeight = 1.000000000000000E-002
    MinimalWeight = 1.00000000000000
    MaximalWeight = 100000.000000000
    WeightFactor = 1.000000000000000E-002
  }
  ElectricField = {}
  DampXH = No
  SpinPolarisation = {}
  Eigensolver = DivideAndConquer {}
  Dispersion = {}
  ManyBodyDispersion = {}
  ThirdOrder = No
  ThirdOrderFull = No
}
Options = {
  WriteResultsTag = Yes
  WriteEigenvectors = No
  WriteAutotestTag = No
  WriteDetailedXML = No
  WriteDetailedOut = Yes
  WriteBandOut = Yes
  AtomResolvedEnergies = No
  RandomSeed = 0
  WriteHS = No
  WriteRealHS = No
  WriteCPA = No
  MinimiseMemoryUsage = No
  ShowFoldedCoords = No
}
ParserOptions = {
  IgnoreUnprocessedNodes = Yes
  ParserVersion = 4
  WriteHSDInput = Yes
  WriteXMLInput = No
  StopAfterParsing = No
}
Analysis = {
  ProjectStates = {}
}
Parallel = {
  RowBlockSize = 32
  ColumnBlockSize = 32
  Groups = 1
}
