Geometry = GenFormat {
61  S
H    Si
1      1     11.582409075835647      8.906309322142173      2.861931711395688
2      1      7.718508045882461      8.917930368849040      2.861259247486378
3      1     15.446310105788838      8.917930368849031      2.861259247486380
4      1      9.660522672401900      5.577504422577177      2.861931704475178
5      1      5.791204537917817      5.561949772975050      2.861407557836226
6      1     13.504295479269409      5.577504422577179      2.861931704475180
7      1      7.712392852791186      2.234353940465613      2.861407546699756
8      1      3.870016223044479      2.234353940465590      2.861407546699758
9      1     11.582409075835635      2.225457518195746      2.861259248360396
10     2     11.582409075835647      8.916142663730767      4.364249352331518
11     2      7.721606050557098      8.916142663730767      4.364249352331518
12     2     15.443212101114197      8.916142663730765      4.364249352331518
13     2      9.652007563196372      5.572589164831729      4.364249352331518
14     2      5.791204537917823      5.572589164831729      4.364249352331518
15     2     13.512810588474922      5.572589164831728      4.364249352331518
16     2      7.721606050557098      2.229035665932691      4.364249352331518
17     2      3.860803025278549      2.229035665932691      4.364249352331518
18     2     11.582409075835647      2.229035665932690      4.364249352331518
19     2      9.652007563196372      7.801624830764421      5.152332469775356
20     2      5.791204537917823      7.801624830764420      5.152332469775356
21     2     13.512810588474922      7.801624830764420      5.152332469775356
22     2      7.721606050557098      4.458071331865383      5.152332469775356
23     2      3.860803025278549      4.458071331865383      5.152332469775356
24     2     11.582409075835647      4.458071331865382      5.152332469775356
25     2      5.791204537917824      1.114517832966344      5.152332469775356
26     2      1.930401512639275      1.114517832966344      5.152332469775356
27     2      9.652007563196374      1.114517832966343      5.152332469775356
28     2      9.732771912549380      7.941282195872772      7.520691383092128
29     2      5.912540645687173      7.946989202280371      7.552347571429006
30     2     13.628315134338846      7.919177403003676      7.517540055123581
31     2      7.874555412297875      4.613967655526602      7.472774098671244
32     2      3.897451173932244      4.524510981863991      7.454985903117050
33     2     11.693678926080537      4.535245413823175      7.524112459700384
34     2      5.871353321859553      1.213230562362535      7.444640557081168
35     2      1.968067758875597      1.198987424112341      7.617074752880480
36     2      9.821483574338460      1.251507707616805      7.571372894744475
37     2     11.674517666599444      6.796462987990118      8.179252639157529
38     2      7.855460751164950      6.810099220039385      8.384502859480692
39     2      4.001294014870998      6.737915868816144      8.260911963926270
40     2      9.766685070548384      3.542361387279583      8.452497040040255
41     2      5.900529753438109      3.480143553727306      8.059052449993553
42     2      2.042427853458062      3.486275419522151      8.472509500396701
43     2      7.825966551730240      0.189265014744357      8.258213382400081
44     2      3.995513387241445      0.155649370636694      8.374705277293769
45     2      0.077776818749046      0.084483384904350      8.594979627784289
46     2     11.845955824234505      7.024438916668895     10.441327833194617
47     2      8.407058035968067      6.517269414204436     10.721294873907400
48     2      3.912739841929159      6.378505564918392     10.684986827112628
49     2      9.777930654803233      4.445229993869726     10.819296179083619
50     2      6.368332751689017      3.937239628577937     10.263560403931880
51     2      2.548940303169755      4.319474889612659     10.810473534643458
52     2      7.389281963483973      0.578919290364500     10.591417777143407
53     2      4.866932610794496      0.445932665294430     10.640993378797665
54     2     10.093431571151974      8.287636632639712     11.623549291503831
55     2     13.871379117846347      8.237566298728000     11.092404258261812
56     2      6.178791227755748      5.886228724339612     11.575715503332219
57     2      8.074296199720377      2.834535065849740     11.447651622309905
58     2      4.418132149744495      2.774342141697509     11.388929441320316
59     2     11.986957464533225      5.070011227010843     11.768986544267214
60     2      6.123226958943222      3.673085527493796     12.874024434573640
61     2     12.212678735529499      7.578217642546400     12.832005068179681
0.000000000000000      0.000000000000000      0.000000000000000
11.582409075835649      0.000000000000000      0.000000000000000
5.791204537917825     10.030660496697113      0.000000000000000
0.000000000000000      0.000000000000000     37.821246761657591
}
Driver = ConjugateGradient {
  MaxForceComponent = 1E-4
  MaxSteps = 0
  LatticeOpt = No
  MovedAtoms = "1:-1"
  OutputPrefix = "geo_end"
  AppendGeometries = No
  ConvergentForcesOnly = Yes
  Constraints = {}
}
Hamiltonian = DFTB {
  EwaldParameter = 0.5
  Filling = Fermi {
    Temperature = 0.01
    IndependentKFilling = No
  }
  KPointsAndWeights = {
-0.33333333 -0.33333333  0.         1.0
-0.33333333  0.          0.         1.0
-0.33333333  0.33333333  0.         1.0
0.         -0.33333333  0.         1.0
0. 0. 0. 1.0
0.         0.33333333 0.         1.0
0.33333333 -0.33333333  0.         1.0
0.33333333 0.         0.         1.0
0.33333333 0.33333333 0.         1.0
  }
  MaxAngularMomentum = {
    H = s
    Si = p
  }
  SCC = YES
  SlaterKosterFiles = Type2FileNames {
    Prefix = /user/panosetti/data/progs/DFTB/parameters/pbc/pbc-0-3/
    Separator = "-"
    Suffix = ".skf"
    LowerCaseTypeName = No
  }
  PolynomialRepulsive = {}
  OldRepulsiveSum = No
  OrbitalResolvedSCC = No
  OldSKInterpolation = No
  Charge = 0.000000000000000E+000
  ReadInitialCharges = No
  InitialCharges = {}
  SCCTolerance = 1.000000000000000E-005
  MaxSCCIterations = 100
  Mixer = Broyden {
    MixingParameter = 0.200000000000000
    CachedIterations = -1
    InverseJacobiWeight = 1.000000000000000E-002
    MinimalWeight = 1.00000000000000
    MaximalWeight = 100000.000000000
    WeightFactor = 1.000000000000000E-002
  }
  ElectricField = {}
  DampXH = No
  SpinPolarisation = {}
  Eigensolver = DivideAndConquer {}
  Dispersion = {}
  ManyBodyDispersion = {}
  ThirdOrder = No
  ThirdOrderFull = No
}
Options = {
  WriteResultsTag = Yes
  WriteEigenvectors = No
  WriteAutotestTag = No
  WriteDetailedXML = No
  WriteDetailedOut = Yes
  WriteBandOut = Yes
  AtomResolvedEnergies = No
  RandomSeed = 0
  WriteHS = No
  WriteRealHS = No
  WriteCPA = No
  MinimiseMemoryUsage = No
  ShowFoldedCoords = No
}
ParserOptions = {
  IgnoreUnprocessedNodes = Yes
  ParserVersion = 4
  WriteHSDInput = Yes
  WriteXMLInput = No
  StopAfterParsing = No
}
Analysis = {
  ProjectStates = {}
}
Parallel = {
  RowBlockSize = 32
  ColumnBlockSize = 32
  Groups = 1
}
