Geometry = GenFormat {
175  S
H    Si
1      1     23.157378211752270     15.595144602506844      2.862272012742738
2      1     19.304015125338275     15.614271584079916      2.861951664739809
3      1     15.450652044282629     15.595144600932306      2.862271546393411
4      1     11.589997119341056     15.598867853756900      2.860560375858221
5      1     27.018033135395715     15.598867847495297      2.860560639766716
6      1     21.236011801393406     12.260616124250207      2.862462055281126
7      1     17.372018453710954     12.260616133305957      2.862461960187639
8      1     13.523548990805450     12.257304223325633      2.862271778122996
9      1      9.652007561283899     12.226870218325995      2.861471155352176
10     1     25.084481265018475     12.257304214744412      2.862271912772254
11     1     19.304015135324402      8.914299704470839      2.862461786705973
12     1     15.433666156616205      8.910630336280429      2.861951654057688
13     1     11.584831739837250      8.903039982862770      2.862748984052294
14     1      7.719183375369208      8.903039978462488      2.862748835609095
15     1     23.174364103217080      8.910630331050708      2.861951446176667
16     1     17.376912138015904      5.583083535476105      2.862271610867277
17     1     13.502675486335194      5.581237239872048      2.862749003985515
18     1      9.652007566599240      5.572588296088154      2.861736826501206
19     1      5.801339636265986      5.581237244699808      2.862748400549625
20     1     21.231118123903560      5.583083540705965      2.862271280156585
21     1     15.414784794128298      2.245447302962536      2.861471165070808
22     1     11.569851293444879      2.233487588366576      2.862748988895842
23     1      7.734163825733473      2.233487590127528      2.862748533265820
24     1      3.889230345696596      2.245447312829278      2.861470506456792
25     1     19.304015132808015      2.237796933588218      2.860560283892985
26     2     23.164818151671295     15.603249661528842      4.364249352331518
27     2     19.304015126392745     15.603249661528842      4.364249352331518
28     2     15.443212101114195     15.603249661528841      4.364249352331518
29     2     11.582409075835645     15.603249661528841      4.364249352331518
30     2     27.025621176949844     15.603249661528841      4.364249352331518
31     2     21.234416639032020     12.259696162629805      4.364249352331518
32     2     17.373613613753470     12.259696162629805      4.364249352331518
33     2     13.512810588474920     12.259696162629803      4.364249352331518
34     2      9.652007563196371     12.259696162629803      4.364249352331518
35     2     25.095219664310569     12.259696162629803      4.364249352331518
36     2     19.304015126392745      8.916142663730767      4.364249352331518
37     2     15.443212101114195      8.916142663730767      4.364249352331518
38     2     11.582409075835645      8.916142663730765      4.364249352331518
39     2      7.721606050557096      8.916142663730765      4.364249352331518
40     2     23.164818151671295      8.916142663730763      4.364249352331518
41     2     17.373613613753470      5.572589164831729      4.364249352331518
42     2     13.512810588474922      5.572589164831728      4.364249352331518
43     2      9.652007563196372      5.572589164831728      4.364249352331518
44     2      5.791204537917821      5.572589164831728      4.364249352331518
45     2     21.234416639032020      5.572589164831728      4.364249352331518
46     2     15.443212101114197      2.229035665932690      4.364249352331518
47     2     11.582409075835647      2.229035665932690      4.364249352331518
48     2      7.721606050557098      2.229035665932690      4.364249352331518
49     2      3.860803025278546      2.229035665932690      4.364249352331518
50     2     19.304015126392745      2.229035665932688      4.364249352331518
51     2     21.234416639032020     14.488731828562496      5.152332469775356
52     2     17.373613613753470     14.488731828562496      5.152332469775356
53     2     13.512810588474920     14.488731828562495      5.152332469775356
54     2      9.652007563196371     14.488731828562495      5.152332469775356
55     2     25.095219664310569     14.488731828562495      5.152332469775356
56     2     19.304015126392745     11.145178329663459      5.152332469775356
57     2     15.443212101114195     11.145178329663459      5.152332469775356
58     2     11.582409075835645     11.145178329663457      5.152332469775356
59     2      7.721606050557096     11.145178329663457      5.152332469775356
60     2     23.164818151671295     11.145178329663455      5.152332469775356
61     2     17.373613613753470      7.801624830764419      5.152332469775356
62     2     13.512810588474922      7.801624830764419      5.152332469775356
63     2      9.652007563196372      7.801624830764418      5.152332469775356
64     2      5.791204537917821      7.801624830764418      5.152332469775356
65     2     21.234416639032020      7.801624830764418      5.152332469775356
66     2     15.443212101114197      4.458071331865382      5.152332469775356
67     2     11.582409075835647      4.458071331865382      5.152332469775356
68     2      7.721606050557098      4.458071331865382      5.152332469775356
69     2      3.860803025278546      4.458071331865382      5.152332469775356
70     2     19.304015126392745      4.458071331865380      5.152332469775356
71     2     13.512810588474922      1.114517832966346      5.152332469775356
72     2      9.652007563196372      1.114517832966346      5.152332469775356
73     2      5.791204537917821      1.114517832966346      5.152332469775356
74     2      1.930401512639271      1.114517832966346      5.152332469775356
75     2     17.373613613753474      1.114517832966344      5.152332469775356
76     2     21.234416639032020     14.488731828562496      7.516581822106875
77     2     17.373613613753470     14.488731828562496      7.516581822106875
78     2     13.512810588474920     14.488731828562495      7.516581822106875
79     2      9.652007563196371     14.488731828562495      7.516581822106875
80     2     25.095219664310569     14.488731828562495      7.516581822106875
81     2     19.304015126392745     11.145178329663459      7.516581822106875
82     2     15.443212101114195     11.145178329663459      7.516581822106875
83     2     11.582409075835645     11.145178329663457      7.516581822106875
84     2      7.721606050557096     11.145178329663457      7.516581822106875
85     2     23.164818151671295     11.145178329663455      7.516581822106875
86     2     17.373613613753470      7.801624830764419      7.516581822106875
87     2     13.512810588474922      7.801624830764419      7.516581822106875
88     2      9.652007563196372      7.801624830764418      7.516581822106875
89     2      5.791204537917821      7.801624830764418      7.516581822106875
90     2     21.234416639032020      7.801624830764418      7.516581822106875
91     2     15.443212101114197      4.458071331865382      7.516581822106875
92     2     11.582409075835647      4.458071331865382      7.516581822106875
93     2      7.721606050557098      4.458071331865382      7.516581822106875
94     2      3.860803025278546      4.458071331865382      7.516581822106875
95     2     19.304015126392745      4.458071331865380      7.516581822106875
96     2     13.512810588474922      1.114517832966346      7.516581822106875
97     2      9.652007563196372      1.114517832966346      7.516581822106875
98     2      5.791204537917821      1.114517832966346      7.516581822106875
99     2      1.930401512639271      1.114517832966346      7.516581822106875
100    2     17.373613613753474      1.114517832966344      7.516581822106875
101    2     23.164378656617654     13.373961866473911      8.063574443337806
102    2     19.304015515191630     13.375182524907588      8.397930456924161
103    2     15.443651699559521     13.373961643135315      8.063573289200967
104    2     11.582586152688821     13.351964300160251      8.347710031066807
105    2      7.721428371834416     13.351964423807953      8.347710155159549
106    2     21.235254039570322     10.030179356731644      8.397929552259361
107    2     17.372776435159786     10.030179037240638      8.397929356327786
108    2     13.495362722567073     10.059485039241762      8.379331185824176
109    2      9.652007533761504     10.032680977263702      8.047437657878733
110    2      5.808652267876967     10.059485606038965      8.379331483019016
111    2     19.304014985603956      6.687615958031856      8.063571942052482
112    2     15.459449686304801      6.657586917665711      8.379330672498392
113    2     11.593725979494778      6.693642231782074      8.397645529039739
114    2      7.710289553105212      6.693642692100227      8.397645384308897
115    2      3.844565500609243      6.657587973878741      8.379330511647490
116    2     17.354431697532199      3.354833917901548      8.347709715219365
117    2     13.514558977200739      3.342545264309920      8.047437269548219
118    2      9.652008164836676      3.330487536553860      8.397646007940564
119    2      5.789456291254349      3.342545382320826      8.047435639290347
120    2      1.949582406538991      3.354833601819145      8.347709432380096
121    2     15.423853076028733      0.010973780831466      8.347710870328507
122    2     11.616094805369036      0.000700207012024      8.379332264648665
123    2      7.687921692199048      0.000700132731660      8.379331804920193
124    2      3.880161069297484      0.010973635365251      8.347710461865010
125    2     -0.000000575193580      0.000001857457761      8.573701669621061
126    2     23.118665381559193     13.347568342939315     10.337459286129651
127    2     19.304015959542578     13.354179679710130     10.842145130654941
128    2     15.489365044209485     13.347567872735439     10.337458670979810
129    2     11.913470889809989     12.818298050927719     10.672532294609093
130    2      7.390543323324934     12.818298614120781     10.672532391308010
131    2     21.217065205598217     10.040681860359587     10.842143499565033
132    2     17.390965520540689     10.040681173642490     10.842143267815691
133    2     13.151236611819883     10.678071936592813     10.704350146218953
134    2      9.652007776475660      9.976613372285954     10.312071385873949
135    2      6.152778155172841     10.678072625010198     10.704350456138302
136    2     19.304014806991820      6.740402959982334     10.337456895297304
137    2     15.823100354711871      6.050272031583055     10.704349507707326
138    2     11.565950130100747      6.677604135100326     10.833918963638400
139    2      7.738066235334371      6.677604759016682     10.833918905572977
140    2      3.480913992522935      6.050272957041129     10.704349830238618
141    2     17.057704144351717      3.908220926765178     10.672531909309606
142    2     13.466004470987029      3.370579767459002     10.312071098594853
143    2      9.652008724926572      3.362560999249930     10.833920097352010
144    2      5.838011150347685      3.370579808513527     10.312068965810964
145    2      2.246309151447532      3.908221095003740     10.672532356299850
146    2     14.796243930428513     -0.008746959000538     10.672533615990890
147    2     12.323868287283494     -0.010572416167417     10.704352130792326
148    2      6.980147668717639     -0.010572898340237     10.704352145310324
149    2      4.507770453628881     -0.008747555948405     10.672533969099565
150    2     21.380268276930543     14.479951107575380     11.505894437068484
151    2     17.227763499166713     14.479950672959184     11.505895332663748
152    2     13.656842294652819     14.405574173293614     11.495264234007047
153    2     24.951186508107618     14.405574435029255     11.495263132030463
154    2      9.652007123741088     12.093878133303477     11.455537355371520
155    2     19.304015231160143     11.145177921534467     11.910106876705022
156    2     15.377889995017659     11.275876868836436     11.505895610326162
157    2     11.505258666454504      9.045517564516388     11.473544206709242
158    2      7.798756349847270      9.045518389254980     11.473544497021729
159    2     23.230140250983951     11.275877925461348     11.505895227691010
160    2     17.454140435406501      7.679706121878249     11.505893061692955
161    2     13.586276240321389      5.441090794616451     11.473544016225533
162    2      9.652008364325647      5.572592531269076     11.902367388772495
163    2      5.717739143605378      5.441093594406931     11.473545852326145
164    2     21.153889285924230      7.679707132897636     11.505893572128866
165    2     15.299606485541544      2.311949860260521     11.455536726743174
166    2     11.733027157391930      2.231167969843581     11.473544015217563
167    2      7.570991183471707      2.231167303727904     11.473545563477627
168    2      4.004405534966655      2.311948577112702     11.455538513782658
169    2     19.304014176958223      4.624384138997169     11.495262511049670
170    2      5.784801202821115      3.339858961166355     12.867486826175064
171    2     13.519214232794955      3.339859055501762     12.867480570901716
172    2      9.652007800551688     10.038054246312939     12.867480980650978
173    2     19.304014911466819      6.684299045215367     12.905995882177805
174    2     15.440777611097687     13.375620481656149     12.905998559435629
175    2     23.167252748562746     13.375620792706012     12.905996070612783
0.000000000000000      0.000000000000000      0.000000000000000
19.304015126392748      0.000000000000000      0.000000000000000
9.652007563196374     16.717767494495188      0.000000000000000
0.000000000000000      0.000000000000000     37.821246761657591
}
Driver = ConjugateGradient {
  MaxForceComponent = 1E-4
  MaxSteps = 0
  LatticeOpt = No
  MovedAtoms = "1:-1"
  OutputPrefix = "geo_end"
  AppendGeometries = No
  ConvergentForcesOnly = Yes
  Constraints = {}
}
Hamiltonian = DFTB {
  Charge = 0
  Filling = Fermi {
    Temperature = 0.0001
    IndependentKFilling = No
  }
  KPointsAndWeights = {
-0.33333333 -0.33333333  0.         1.0
-0.33333333  0.          0.         1.0
-0.33333333  0.33333333  0.         1.0
0.         -0.33333333  0.         1.0
0.  0.  0. 1.0
0.          0.33333333  0.         1.0
0.33333333 -0.33333333  0.         1.0
0.33333333  0.          0.         1.0
0.33333333  0.33333333  0.         1.0
  }
  MaxAngularMomentum = {
    H = "s"
    Si = "p"
  }
  MaxSCCIterations = 100
  SCC = YES
  SlaterKosterFiles = Type2FileNames {
    Prefix = /user/panosetti/data/progs/DFTB/parameters/pbc/pbc-0-3/
    Separator = "-"
    Suffix = ".skf"
    LowerCaseTypeName = No
  }
  PolynomialRepulsive = {}
  OldRepulsiveSum = No
  OrbitalResolvedSCC = No
  OldSKInterpolation = No
  ReadInitialCharges = No
  InitialCharges = {}
  SCCTolerance = 1.000000000000000E-005
  Mixer = Broyden {
    MixingParameter = 0.200000000000000
    CachedIterations = -1
    InverseJacobiWeight = 1.000000000000000E-002
    MinimalWeight = 1.00000000000000
    MaximalWeight = 100000.000000000
    WeightFactor = 1.000000000000000E-002
  }
  ElectricField = {}
  DampXH = No
  EwaldParameter = 0.000000000000000E+000
  SpinPolarisation = {}
  Eigensolver = DivideAndConquer {}
  Dispersion = {}
  ThirdOrder = No
  ThirdOrderFull = No
}
Options = {
  WriteResultsTag = Yes
  WriteEigenvectors = No
  WriteAutotestTag = No
  WriteDetailedXML = No
  WriteDetailedOut = Yes
  WriteBandOut = Yes
  AtomResolvedEnergies = No
  RandomSeed = 0
  WriteHS = No
  WriteRealHS = No
  MinimiseMemoryUsage = No
  ShowFoldedCoords = No
}
ParserOptions = {
  ParserVersion = 4
  WriteHSDInput = Yes
  WriteXMLInput = No
  StopAfterParsing = No
  IgnoreUnprocessedNodes = No
}
Analysis = {
  ProjectStates = {}
}
Parallel = {
  RowBlockSize = 32
  ColumnBlockSize = 32
  Groups = 1
}
