Geometry = GenFormat { 
    <<< "geo_end.gen" 
} 
 
Driver = ConjugateGradient{ 
   MaxForceComponent = 1E-4 
   MaxSteps = 0 
   } 
Hamiltonian = DFTB{ 
   Charge = 0 
   EwaldParameter = 0.1 
   Filling = Fermi{ 
      Temperature = 0.0001 
   } 
   KPointsAndWeights = { 
      -0.46153846 -0.46153846  0.         1.0 
      -0.46153846 -0.38461538  0.         1.0 
      -0.46153846  0.30769231  0.         1.0 
       0.07692308  0.23076923  0.         1.0 
       0.07692308  0.30769231  0.         1.0 
       0.07692308  0.38461538  0.         1.0 
       0.07692308  0.46153846  0.         1.0 
       0.15384615 -0.46153846  0.         1.0 
       0.15384615 -0.38461538  0.         1.0 
       0.15384615 -0.30769231  0.         1.0 
       0.15384615 -0.23076923  0.         1.0 
       0.15384615 -0.15384615  0.         1.0 
       0.15384615 -0.07692308  0.         1.0 
      -0.46153846  0.38461538  0.         1.0 
       0.15384615  0.          0.         1.0 
       0.15384615  0.07692308  0.         1.0 
       0.15384615  0.15384615  0.         1.0 
       0.15384615  0.23076923  0.         1.0 
       0.15384615  0.30769231  0.         1.0 
       0.15384615  0.38461538  0.         1.0 
       0.15384615  0.46153846  0.         1.0 
       0.23076923 -0.46153846  0.         1.0 
       0.23076923 -0.38461538  0.         1.0 
       0.23076923 -0.30769231  0.         1.0 
      -0.46153846  0.46153846  0.         1.0 
       0.23076923 -0.23076923  0.         1.0 
       0.23076923 -0.15384615  0.         1.0 
       0.23076923 -0.07692308  0.         1.0 
       0.23076923  0.          0.         1.0 
       0.23076923  0.07692308  0.         1.0 
       0.23076923  0.15384615  0.         1.0 
       0.23076923  0.23076923  0.         1.0 
       0.23076923  0.30769231  0.         1.0 
       0.23076923  0.38461538  0.         1.0 
       0.23076923  0.46153846  0.         1.0 
      -0.38461538 -0.46153846  0.         1.0 
       0.30769231 -0.46153846  0.         1.0 
       0.30769231 -0.38461538  0.         1.0 
       0.30769231 -0.30769231  0.         1.0 
       0.30769231 -0.23076923  0.         1.0 
       0.30769231 -0.15384615  0.         1.0 
       0.30769231 -0.07692308  0.         1.0 
       0.30769231  0.          0.         1.0 
       0.30769231  0.07692308  0.         1.0 
       0.30769231  0.15384615  0.         1.0 
       0.30769231  0.23076923  0.         1.0 
      -0.38461538 -0.38461538  0.         1.0 
       0.30769231  0.30769231  0.         1.0 
       0.30769231  0.38461538  0.         1.0 
       0.30769231  0.46153846  0.         1.0 
       0.38461538 -0.46153846  0.         1.0 
       0.38461538 -0.38461538  0.         1.0 
       0.38461538 -0.30769231  0.         1.0 
       0.38461538 -0.23076923  0.         1.0 
       0.38461538 -0.15384615  0.         1.0 
       0.38461538 -0.07692308  0.         1.0 
       0.38461538  0.          0.         1.0 
      -0.38461538 -0.30769231  0.         1.0 
       0.38461538  0.07692308  0.         1.0 
       0.38461538  0.15384615  0.         1.0 
       0.38461538  0.23076923  0.         1.0 
       0.38461538  0.30769231  0.         1.0 
       0.38461538  0.38461538  0.         1.0 
       0.38461538  0.46153846  0.         1.0 
       0.46153846 -0.46153846  0.         1.0 
       0.46153846 -0.38461538  0.         1.0 
       0.46153846 -0.30769231  0.         1.0 
       0.46153846 -0.23076923  0.         1.0 
      -0.38461538 -0.23076923  0.         1.0 
       0.46153846 -0.15384615  0.         1.0 
       0.46153846 -0.07692308  0.         1.0 
       0.46153846  0.          0.         1.0 
       0.46153846  0.07692308  0.         1.0 
       0.46153846  0.15384615  0.         1.0 
       0.46153846  0.23076923  0.         1.0 
       0.46153846  0.30769231  0.         1.0 
       0.46153846  0.38461538  0.         1.0 
       0.46153846  0.46153846  0.         1.0 
      -0.38461538 -0.15384615  0.         1.0 
      -0.38461538 -0.07692308  0.         1.0 
      -0.38461538  0.          0.         1.0 
      -0.46153846 -0.30769231  0.         1.0 
      -0.38461538  0.07692308  0.         1.0 
      -0.38461538  0.15384615  0.         1.0 
      -0.38461538  0.23076923  0.         1.0 
      -0.38461538  0.30769231  0.         1.0 
      -0.38461538  0.38461538  0.         1.0 
      -0.38461538  0.46153846  0.         1.0 
      -0.30769231 -0.46153846  0.         1.0 
      -0.30769231 -0.38461538  0.         1.0 
      -0.30769231 -0.30769231  0.         1.0 
      -0.30769231 -0.23076923  0.         1.0 
      -0.46153846 -0.23076923  0.         1.0 
      -0.30769231 -0.15384615  0.         1.0 
      -0.30769231 -0.07692308  0.         1.0 
      -0.30769231  0.          0.         1.0 
      -0.30769231  0.07692308  0.         1.0 
      -0.30769231  0.15384615  0.         1.0 
      -0.30769231  0.23076923  0.         1.0 
      -0.30769231  0.30769231  0.         1.0 
      -0.30769231  0.38461538  0.         1.0 
      -0.30769231  0.46153846  0.         1.0 
      -0.23076923 -0.46153846  0.         1.0 
      -0.46153846 -0.15384615  0.         1.0 
      -0.23076923 -0.38461538  0.         1.0 
      -0.23076923 -0.30769231  0.         1.0 
      -0.23076923 -0.23076923  0.         1.0 
      -0.23076923 -0.15384615  0.         1.0 
      -0.23076923 -0.07692308  0.         1.0 
      -0.23076923  0.          0.         1.0 
      -0.23076923  0.07692308  0.         1.0 
      -0.23076923  0.15384615  0.         1.0 
      -0.23076923  0.23076923  0.         1.0 
      -0.23076923  0.30769231  0.         1.0 
      -0.46153846 -0.07692308  0.         1.0 
      -0.23076923  0.38461538  0.         1.0 
      -0.23076923  0.46153846  0.         1.0 
      -0.15384615 -0.46153846  0.         1.0 
      -0.15384615 -0.38461538  0.         1.0 
      -0.15384615 -0.30769231  0.         1.0 
      -0.15384615 -0.23076923  0.         1.0 
      -0.15384615 -0.15384615  0.         1.0 
      -0.15384615 -0.07692308  0.         1.0 
      -0.15384615  0.          0.         1.0 
      -0.15384615  0.07692308  0.         1.0 
      -0.46153846  0.          0.         1.0 
      -0.15384615  0.15384615  0.         1.0 
      -0.15384615  0.23076923  0.         1.0 
      -0.15384615  0.30769231  0.         1.0 
      -0.15384615  0.38461538  0.         1.0 
      -0.15384615  0.46153846  0.         1.0 
      -0.07692308 -0.46153846  0.         1.0 
      -0.07692308 -0.38461538  0.         1.0 
      -0.07692308 -0.30769231  0.         1.0 
      -0.07692308 -0.23076923  0.         1.0 
      -0.07692308 -0.15384615  0.         1.0 
      -0.46153846  0.07692308  0.         1.0 
      -0.07692308 -0.07692308  0.         1.0 
      -0.07692308  0.          0.         1.0 
      -0.07692308  0.07692308  0.         1.0 
      -0.07692308  0.15384615  0.         1.0 
      -0.07692308  0.23076923  0.         1.0 
      -0.07692308  0.30769231  0.         1.0 
      -0.07692308  0.38461538  0.         1.0 
      -0.07692308  0.46153846  0.         1.0 
       0.         -0.46153846  0.         1.0 
       0.         -0.38461538  0.         1.0 
      -0.46153846  0.15384615  0.         1.0 
       0.         -0.30769231  0.         1.0 
       0.         -0.23076923  0.         1.0 
       0.         -0.15384615  0.         1.0 
       0.         -0.07692308  0.         1.0 
       0.  0.  0. 1.0 
       0.          0.07692308  0.         1.0 
       0.          0.15384615  0.         1.0 
       0.          0.23076923  0.         1.0 
       0.          0.30769231  0.         1.0 
       0.          0.38461538  0.         1.0 
      -0.46153846  0.23076923  0.         1.0 
       0.          0.46153846  0.         1.0 
       0.07692308 -0.46153846  0.         1.0 
       0.07692308 -0.38461538  0.         1.0 
       0.07692308 -0.30769231  0.         1.0 
       0.07692308 -0.23076923  0.         1.0 
       0.07692308 -0.15384615  0.         1.0 
       0.07692308 -0.07692308  0.         1.0 
       0.07692308  0.          0.         1.0 
       0.07692308  0.07692308  0.         1.0 
       0.07692308  0.15384615  0.         1.0 
   } 
   MaxAngularMomentum = { 
      H = "s" 
      Si = "p" 
   } 
   MaxSCCIterations = 100 
   SCC = YES 
   SlaterKosterFiles = Type2FileNames{ 
      Prefix = /user/panosetti/data/progs/DFTB/parameters/pbc/pbc-0-3/ 
      Separator = "-" 
      Suffix = ".skf" 
   } 
} 
Options { 
   WriteResultsTag = Yes  
} 
