Geometry = GenFormat {
61  S
H    Si
1      1     11.582409075835647      8.906309322142173      2.861931711395688
2      1      7.718508045882461      8.917930368849040      2.861259247486378
3      1     15.446310105788838      8.917930368849031      2.861259247486380
4      1      9.660522672401900      5.577504422577177      2.861931704475178
5      1      5.791204537917817      5.561949772975050      2.861407557836226
6      1     13.504295479269409      5.577504422577179      2.861931704475180
7      1      7.712392852791186      2.234353940465613      2.861407546699756
8      1      3.870016223044479      2.234353940465590      2.861407546699758
9      1     11.582409075835635      2.225457518195746      2.861259248360396
10     2     11.582409075835647      8.916142663730767      4.364249352331518
11     2      7.721606050557098      8.916142663730767      4.364249352331518
12     2     15.443212101114197      8.916142663730765      4.364249352331518
13     2      9.652007563196372      5.572589164831729      4.364249352331518
14     2      5.791204537917823      5.572589164831729      4.364249352331518
15     2     13.512810588474922      5.572589164831728      4.364249352331518
16     2      7.721606050557098      2.229035665932691      4.364249352331518
17     2      3.860803025278549      2.229035665932691      4.364249352331518
18     2     11.582409075835647      2.229035665932690      4.364249352331518
19     2      9.652007563196372      7.801624830764421      5.152332469775356
20     2      5.791204537917823      7.801624830764420      5.152332469775356
21     2     13.512810588474922      7.801624830764420      5.152332469775356
22     2      7.721606050557098      4.458071331865383      5.152332469775356
23     2      3.860803025278549      4.458071331865383      5.152332469775356
24     2     11.582409075835647      4.458071331865382      5.152332469775356
25     2      5.791204537917824      1.114517832966344      5.152332469775356
26     2      1.930401512639275      1.114517832966344      5.152332469775356
27     2      9.652007563196374      1.114517832966343      5.152332469775356
28     2      9.550224341327212      7.907031915732948      7.472930275368483
29     2      5.748200929539443      7.884528441355607      7.486079597800405
30     2     13.480455863250915      7.850100514891373      7.550471336344629
31     2      7.731419415061167      4.465843607074190      7.539653928836185
32     2      3.717157437069912      4.531099650494198      7.481640609206509
33     2     11.422841811216047      4.481000503799132      7.619175150464766
34     2      5.736557364504674      1.253117426724176      7.481147368103875
35     2      1.806752002649642      1.217947999140060      7.501046768642851
36     2      9.612922146718942      1.242917753409828      7.595813063704292
37     2     11.474945388511950      6.793840173303782      8.284310905815870
38     2      7.650629028771558      6.715501911184107      8.313929196518318
39     2      3.873254874284670      6.729173126760935      8.375259647529584
40     2      9.551614692361914      3.397679100996893      8.687053412290386
41     2      5.685897616095657      3.495837437947113      8.368304243308033
42     2      1.828635646304525      3.417933604280865      8.496974426660605
43     2      7.622679488235654      0.074739343678799      8.283145273168966
44     2      3.786510255816792      0.154154337997995      8.220133313186382
45     2     -0.058746647235089      0.044035764935892      8.381568383866050
46     2     12.517385199866299      9.646794426132654     10.445587903033012
47     2      9.732667599797416      9.794519005355847     10.582246899064044
48     2      5.367307736252309      5.721097314973823     10.042577744249984
49     2     11.038359556061645      7.570718742023653     10.521199206238578
50     2      8.471914443443124      6.443824479607433     10.561345611465507
51     2      4.504751316883723      4.777472873077768     12.049943221214511
52     2      5.949631681932683      3.032208715016266     10.895162363602292
53     2      6.791774905867181      5.748946845668232     12.240937586657266
54     2     11.123403639250419     10.923237230296449     12.200340867693013
55     2     17.222297235018356      9.592667060123249     10.740627773772317
56     2      7.708502089515980      8.629362584171215     11.196830109404868
57     2     10.635083952803104      8.122992189298927     12.908460958574373
58     2      3.732239167398304      2.408986125356841     10.162328127275904
59     2     13.011664820571601      7.723564767906131     12.145033830540271
60     2      8.180862337740855      7.513233525394576     13.252087931575179
61     2     13.311327871180016     10.038115709047114     12.725138231239287
0.000000000000000      0.000000000000000      0.000000000000000
11.582409075835649      0.000000000000000      0.000000000000000
5.791204537917825     10.030660496697113      0.000000000000000
0.000000000000000      0.000000000000000     37.821246761657591
}
Driver = ConjugateGradient {
  MaxForceComponent = 1E-4
  MaxSteps = 0
  LatticeOpt = No
  MovedAtoms = "1:-1"
  OutputPrefix = "geo_end"
  AppendGeometries = No
  ConvergentForcesOnly = Yes
  Constraints = {}
}
Hamiltonian = DFTB {
  EwaldParameter = 0.5
  Filling = Fermi {
    Temperature = 0.01
    IndependentKFilling = No
  }
  KPointsAndWeights = {
-0.33333333 -0.33333333  0.         1.0
-0.33333333  0.          0.         1.0
-0.33333333  0.33333333  0.         1.0
0.         -0.33333333  0.         1.0
0. 0. 0. 1.0
0.         0.33333333 0.         1.0
0.33333333 -0.33333333  0.         1.0
0.33333333 0.         0.         1.0
0.33333333 0.33333333 0.         1.0
  }
  MaxAngularMomentum = {
    H = s
    Si = p
  }
  SCC = YES
  SlaterKosterFiles = Type2FileNames {
    Prefix = /user/panosetti/data/progs/DFTB/parameters/pbc/pbc-0-3/
    Separator = "-"
    Suffix = ".skf"
    LowerCaseTypeName = No
  }
  PolynomialRepulsive = {}
  OldRepulsiveSum = No
  OrbitalResolvedSCC = No
  OldSKInterpolation = No
  Charge = 0.000000000000000E+000
  ReadInitialCharges = No
  InitialCharges = {}
  SCCTolerance = 1.000000000000000E-005
  MaxSCCIterations = 100
  Mixer = Broyden {
    MixingParameter = 0.200000000000000
    CachedIterations = -1
    InverseJacobiWeight = 1.000000000000000E-002
    MinimalWeight = 1.00000000000000
    MaximalWeight = 100000.000000000
    WeightFactor = 1.000000000000000E-002
  }
  ElectricField = {}
  DampXH = No
  SpinPolarisation = {}
  Eigensolver = DivideAndConquer {}
  Dispersion = {}
  ManyBodyDispersion = {}
  ThirdOrder = No
  ThirdOrderFull = No
}
Options = {
  WriteResultsTag = Yes
  WriteEigenvectors = No
  WriteAutotestTag = No
  WriteDetailedXML = No
  WriteDetailedOut = Yes
  WriteBandOut = Yes
  AtomResolvedEnergies = No
  RandomSeed = 0
  WriteHS = No
  WriteRealHS = No
  WriteCPA = No
  MinimiseMemoryUsage = No
  ShowFoldedCoords = No
}
ParserOptions = {
  IgnoreUnprocessedNodes = Yes
  ParserVersion = 4
  WriteHSDInput = Yes
  WriteXMLInput = No
  StopAfterParsing = No
}
Analysis = {
  ProjectStates = {}
}
Parallel = {
  RowBlockSize = 32
  ColumnBlockSize = 32
  Groups = 1
}
