Geometry = GenFormat {
61  S
H    Si
1      1     11.582409075835647      8.906309322142173      2.861931711395688
2      1      7.718508045882461      8.917930368849040      2.861259247486378
3      1     15.446310105788838      8.917930368849031      2.861259247486380
4      1      9.660522672401900      5.577504422577177      2.861931704475178
5      1      5.791204537917817      5.561949772975050      2.861407557836226
6      1     13.504295479269409      5.577504422577179      2.861931704475180
7      1      7.712392852791186      2.234353940465613      2.861407546699756
8      1      3.870016223044479      2.234353940465590      2.861407546699758
9      1     11.582409075835635      2.225457518195746      2.861259248360396
10     2     11.582409075835647      8.916142663730767      4.364249352331518
11     2      7.721606050557098      8.916142663730767      4.364249352331518
12     2     15.443212101114197      8.916142663730765      4.364249352331518
13     2      9.652007563196372      5.572589164831729      4.364249352331518
14     2      5.791204537917823      5.572589164831729      4.364249352331518
15     2     13.512810588474922      5.572589164831728      4.364249352331518
16     2      7.721606050557098      2.229035665932691      4.364249352331518
17     2      3.860803025278549      2.229035665932691      4.364249352331518
18     2     11.582409075835647      2.229035665932690      4.364249352331518
19     2      9.652007563196372      7.801624830764421      5.152332469775356
20     2      5.791204537917823      7.801624830764420      5.152332469775356
21     2     13.512810588474922      7.801624830764420      5.152332469775356
22     2      7.721606050557098      4.458071331865383      5.152332469775356
23     2      3.860803025278549      4.458071331865383      5.152332469775356
24     2     11.582409075835647      4.458071331865382      5.152332469775356
25     2      5.791204537917824      1.114517832966344      5.152332469775356
26     2      1.930401512639275      1.114517832966344      5.152332469775356
27     2      9.652007563196374      1.114517832966343      5.152332469775356
28     2      9.789118888720839      7.839064541295942      9.271603629051459
29     2      5.728576367244929      8.022044370432853      7.466823956180160
30     2     13.592954910413605      7.950121005255910      7.493202994511716
31     2      7.661460501763749      4.487767670121520      7.572960413949962
32     2      3.780954454531885      4.535110421826378      7.521991308653694
33     2     11.640208984229783      4.539471995924853      7.537219234277128
34     2      4.995755655468312      1.373927281907315      7.431513424360006
35     2      1.946617689342712      1.228693180194659      7.638629089531390
36     2      9.790117466241696      1.175550383173591      7.633952124663960
37     2     11.947052989978989      6.683210982424921      8.652784487084217
38     2      7.604206194076647      6.846341973726836      8.188116798132059
39     2      3.894600248691029      6.773432073460470      8.315959596192684
40     2      9.700946310964680      3.558015381503958      8.496509137214158
41     2      5.590237365658187      3.478403363966370      8.633916891902931
42     2      2.013360890293499      3.463543277685386      8.714482782344003
43     2      8.066698804196614     -0.161827536789004      8.890216496174190
44     2      3.738902364306341      0.340732475249561      9.063717443251262
45     2      0.106507871224248      0.057689860044949      8.647281066633516
46     2     12.831465681152748      5.819621074202489     10.866646468421557
47     2      7.706679791827175      7.643555480010646     14.899135807328756
48     2      4.448335995942912      3.695478119365441     13.266965674874218
49     2      7.604185878842871      7.795741676532639     10.455956917015278
50     2      7.039692601247945      6.378044200158747     13.264725361483347
51     2      4.211701858439078      5.750702726174748     11.966731978442253
52     2      7.280127385182414      1.726358789788406      7.582339410605633
53     2      3.905010177564775     -3.444481603041844      7.074810464954241
54     2     11.845841664958014      6.993736500016305     12.763877685105628
55     2     14.712346562730518      7.457124270875522     10.512145867782230
56     2      8.260702169587255      4.455461268419022     11.781785199432521
57     2      4.201466050436647      3.511202686119808     10.753798372156178
58     2      6.844727411785684      4.022985573946804     13.653595784227633
59     2     10.096464946879079      5.256279878659480     10.358003629918228
60     2      6.451234686771776      5.665761664730746     10.981174510518112
61     2     12.809701780320664      7.923075464730122     14.412387450660008
0.000000000000000      0.000000000000000      0.000000000000000
11.582409075835649      0.000000000000000      0.000000000000000
5.791204537917825     10.030660496697113      0.000000000000000
0.000000000000000      0.000000000000000     37.821246761657591
}
Driver = ConjugateGradient {
  MaxForceComponent = 1E-4
  MaxSteps = 0
  LatticeOpt = No
  MovedAtoms = "1:-1"
  OutputPrefix = "geo_end"
  AppendGeometries = No
  ConvergentForcesOnly = Yes
  Constraints = {}
}
Hamiltonian = DFTB {
  EwaldParameter = 0.5
  Filling = Fermi {
    Temperature = 0.01
    IndependentKFilling = No
  }
  KPointsAndWeights = {
-0.33333333 -0.33333333  0.         1.0
-0.33333333  0.          0.         1.0
-0.33333333  0.33333333  0.         1.0
0.         -0.33333333  0.         1.0
0. 0. 0. 1.0
0.         0.33333333 0.         1.0
0.33333333 -0.33333333  0.         1.0
0.33333333 0.         0.         1.0
0.33333333 0.33333333 0.         1.0
  }
  MaxAngularMomentum = {
    H = s
    Si = p
  }
  SCC = YES
  SlaterKosterFiles = Type2FileNames {
    Prefix = /user/panosetti/data/progs/DFTB/parameters/pbc/pbc-0-3/
    Separator = "-"
    Suffix = ".skf"
    LowerCaseTypeName = No
  }
  PolynomialRepulsive = {}
  OldRepulsiveSum = No
  OrbitalResolvedSCC = No
  OldSKInterpolation = No
  Charge = 0.000000000000000E+000
  ReadInitialCharges = No
  InitialCharges = {}
  SCCTolerance = 1.000000000000000E-005
  MaxSCCIterations = 100
  Mixer = Broyden {
    MixingParameter = 0.200000000000000
    CachedIterations = -1
    InverseJacobiWeight = 1.000000000000000E-002
    MinimalWeight = 1.00000000000000
    MaximalWeight = 100000.000000000
    WeightFactor = 1.000000000000000E-002
  }
  ElectricField = {}
  DampXH = No
  SpinPolarisation = {}
  Eigensolver = DivideAndConquer {}
  Dispersion = {}
  ManyBodyDispersion = {}
  ThirdOrder = No
  ThirdOrderFull = No
}
Options = {
  WriteResultsTag = Yes
  WriteEigenvectors = No
  WriteAutotestTag = No
  WriteDetailedXML = No
  WriteDetailedOut = Yes
  WriteBandOut = Yes
  AtomResolvedEnergies = No
  RandomSeed = 0
  WriteHS = No
  WriteRealHS = No
  WriteCPA = No
  MinimiseMemoryUsage = No
  ShowFoldedCoords = No
}
ParserOptions = {
  IgnoreUnprocessedNodes = Yes
  ParserVersion = 4
  WriteHSDInput = Yes
  WriteXMLInput = No
  StopAfterParsing = No
}
Analysis = {
  ProjectStates = {}
}
Parallel = {
  RowBlockSize = 32
  ColumnBlockSize = 32
  Groups = 1
}
