Geometry = GenFormat {
61  S
H    Si
1      1     11.582409075835647      8.906309322142173      2.861931711395688
2      1      7.718508045882461      8.917930368849040      2.861259247486378
3      1     15.446310105788838      8.917930368849031      2.861259247486380
4      1      9.660522672401900      5.577504422577177      2.861931704475178
5      1      5.791204537917817      5.561949772975050      2.861407557836226
6      1     13.504295479269409      5.577504422577179      2.861931704475180
7      1      7.712392852791186      2.234353940465613      2.861407546699756
8      1      3.870016223044479      2.234353940465590      2.861407546699758
9      1     11.582409075835635      2.225457518195746      2.861259248360396
10     2     11.582409075835647      8.916142663730767      4.364249352331518
11     2      7.721606050557098      8.916142663730767      4.364249352331518
12     2     15.443212101114197      8.916142663730765      4.364249352331518
13     2      9.652007563196372      5.572589164831729      4.364249352331518
14     2      5.791204537917823      5.572589164831729      4.364249352331518
15     2     13.512810588474922      5.572589164831728      4.364249352331518
16     2      7.721606050557098      2.229035665932691      4.364249352331518
17     2      3.860803025278549      2.229035665932691      4.364249352331518
18     2     11.582409075835647      2.229035665932690      4.364249352331518
19     2      9.652007563196372      7.801624830764421      5.152332469775356
20     2      5.791204537917823      7.801624830764420      5.152332469775356
21     2     13.512810588474922      7.801624830764420      5.152332469775356
22     2      7.721606050557098      4.458071331865383      5.152332469775356
23     2      3.860803025278549      4.458071331865383      5.152332469775356
24     2     11.582409075835647      4.458071331865382      5.152332469775356
25     2      5.791204537917824      1.114517832966344      5.152332469775356
26     2      1.930401512639275      1.114517832966344      5.152332469775356
27     2      9.652007563196374      1.114517832966343      5.152332469775356
28     2      9.267305958944599      7.821298790728086      7.554502944259574
29     2      5.557832656146767      7.704848301590271      7.648806037734353
30     2     13.530943017906720      7.964461109439998      7.566643143237671
31     2      7.792292870334247      4.444348521794608      7.457586587744960
32     2      3.925559695811602      4.433453603917859      7.458667182011452
33     2     11.816015724127899      3.854344677350855      7.569981376023809
34     2      5.794484718237323      0.956196198750487      7.541901333919948
35     2      1.882760839432091      0.902165041999179      7.615864080080894
36     2      9.587535708201651      0.923439989130894      7.554824095264649
37     2     11.656671857303859      7.164918960239214      8.871856186908317
38     2      7.427907181582173      6.521226266063840      8.529919302321856
39     2      3.593712454118054      6.528627441968655      8.546455426621938
40     2      9.601249789929131      3.171452173191452      8.409096660140580
41     2      5.868026174492448      3.260680276997848      8.062694757729211
42     2      2.440504346429922      3.023524693739171      8.636305346587346
43     2      7.680264534627003      0.067386975396166      8.738234495630632
44     2      3.878647841645809     -0.101588508845994      8.561008501827255
45     2     -0.093364871774058     -0.112184059261782      8.587278056544848
46     2     10.352865576694233      5.678161107756420      7.452009852464830
47     2      7.677424722510642      5.722108728479686     10.841121765194012
48     2      1.409134882411783      5.229297641302399      9.599288532394684
49     2      9.549995851660309      4.025365597187417     10.705191368502437
50     2      6.346581784565116      4.381019541902089     12.435358380699551
51     2      0.197595643587177      4.236899492099028     11.640837276279845
52     2      7.134991963618394      1.590080392681735     11.537428169801114
53     2      4.976027236154653     -1.057339092350738     10.442102534038780
54     2      9.988138298560143      6.643203343432281     10.996644187953903
55     2     11.269474249268814      6.073795340475336     13.012636065979310
56     2      3.568662196303852      2.953641670479918     10.968149738218504
57     2      8.482657426998822      3.202830553501406     12.665234578431736
58     2      4.819094688792688      1.023502879725290     11.568828096098978
59     2     10.688250005917036      3.422897518486600     13.823013215354299
60     2      5.881558233383520      3.318959269983001     10.383345726823833
61     2     11.208964884542288      5.278734682104216     15.179982895358091
0.000000000000000      0.000000000000000      0.000000000000000
11.582409075835649      0.000000000000000      0.000000000000000
5.791204537917825     10.030660496697113      0.000000000000000
0.000000000000000      0.000000000000000     37.821246761657591
}
Driver = ConjugateGradient {
  MaxForceComponent = 1E-4
  MaxSteps = 0
  LatticeOpt = No
  MovedAtoms = "1:-1"
  OutputPrefix = "geo_end"
  AppendGeometries = No
  ConvergentForcesOnly = Yes
  Constraints = {}
}
Hamiltonian = DFTB {
  EwaldParameter = 0.5
  Filling = Fermi {
    Temperature = 0.01
    IndependentKFilling = No
  }
  KPointsAndWeights = {
-0.33333333 -0.33333333  0.         1.0
-0.33333333  0.          0.         1.0
-0.33333333  0.33333333  0.         1.0
0.         -0.33333333  0.         1.0
0. 0. 0. 1.0
0.         0.33333333 0.         1.0
0.33333333 -0.33333333  0.         1.0
0.33333333 0.         0.         1.0
0.33333333 0.33333333 0.         1.0
  }
  MaxAngularMomentum = {
    H = s
    Si = p
  }
  SCC = YES
  SlaterKosterFiles = Type2FileNames {
    Prefix = /user/panosetti/data/progs/DFTB/parameters/pbc/pbc-0-3/
    Separator = "-"
    Suffix = ".skf"
    LowerCaseTypeName = No
  }
  PolynomialRepulsive = {}
  OldRepulsiveSum = No
  OrbitalResolvedSCC = No
  OldSKInterpolation = No
  Charge = 0.000000000000000E+000
  ReadInitialCharges = No
  InitialCharges = {}
  SCCTolerance = 1.000000000000000E-005
  MaxSCCIterations = 100
  Mixer = Broyden {
    MixingParameter = 0.200000000000000
    CachedIterations = -1
    InverseJacobiWeight = 1.000000000000000E-002
    MinimalWeight = 1.00000000000000
    MaximalWeight = 100000.000000000
    WeightFactor = 1.000000000000000E-002
  }
  ElectricField = {}
  DampXH = No
  SpinPolarisation = {}
  Eigensolver = DivideAndConquer {}
  Dispersion = {}
  ManyBodyDispersion = {}
  ThirdOrder = No
  ThirdOrderFull = No
}
Options = {
  WriteResultsTag = Yes
  WriteEigenvectors = No
  WriteAutotestTag = No
  WriteDetailedXML = No
  WriteDetailedOut = Yes
  WriteBandOut = Yes
  AtomResolvedEnergies = No
  RandomSeed = 0
  WriteHS = No
  WriteRealHS = No
  WriteCPA = No
  MinimiseMemoryUsage = No
  ShowFoldedCoords = No
}
ParserOptions = {
  IgnoreUnprocessedNodes = Yes
  ParserVersion = 4
  WriteHSDInput = Yes
  WriteXMLInput = No
  StopAfterParsing = No
}
Analysis = {
  ProjectStates = {}
}
Parallel = {
  RowBlockSize = 32
  ColumnBlockSize = 32
  Groups = 1
}
