Geometry = GenFormat {
347  S
H    Si
1      1     34.736324940369634     22.282778365073977      2.862140869637623
2      1     30.880699509019255     22.301316625017968      2.861873795170404
3      1     27.025621211777349     22.282800970550820      2.862379675658404
4      1     23.170543016066162     22.301316840188001      2.861874290424148
5      1     19.314917343871318     22.282778646972808      2.862141546398844
6      1     15.452456404627867     22.285018592154302      2.860363148068516
7      1     38.598785764716730     22.285018412283836      2.860362824625657
8      1     32.816766715179035     18.946768054838678      2.862234700080723
9      1     28.951421581879327     18.948366988520476      2.862395072445192
10     1     25.099820930540659     18.948367049315053      2.862395390860178
11     1     21.234475632393448     18.946768107680242      2.862235564376187
12     1     17.385626694464882     18.941149320521397      2.862141490824686
13     1     13.512810590162848     18.908547626062571      2.861445116298100
14     1     36.665615431554833     18.941149298675473      2.862140794130486
15     1     30.885478819073377     15.598481480139837      2.862394798530637
16     1     27.025621293261413     15.603248718841476      2.861737724162865
17     1     23.165763601976767     15.598481505258043      2.862395215154426
18     1     19.297384896520484     15.592810341724588      2.861874089541130
19     1     15.447407829391086     15.585852888190479      2.862589017016974
20     1     11.578213137302809     15.585852807330538      2.862588846582392
21     1     34.753857349742944     15.592810457905598      2.861873524427232
22     1     28.959678562242264     12.262897447976426      2.862395043507362
23     1     25.091563980081734     12.262897386925422      2.862395138740157
24     1     21.240959262498844     12.263472565675444      2.862379376471410
25     1     17.368659950855726     12.261906175791188      2.862716479038944
26     1     13.512810393610739     12.252364314356143      2.861493484008395
27     1      9.656961137273175     12.261906168623247      2.862716436804240
28     1     32.810283027556324     12.263472641807649      2.862379197521616
29     1     27.025621221016102      8.916209865390213      2.862235591880514
30     1     23.152463361547287      8.915618962208255      2.861874181410867
31     1     19.303453055135925      8.910746325501863      2.862716461693868
32     1     15.444731736661055      8.917019178290021      2.862624820240306
33     1     11.580889115679188      8.917019235027546      2.862624891462516
34     1      7.722168073312619      8.910746331149653      2.862716485370950
35     1     30.898779109591750      8.915619037515148      2.861874111250039
36     1     25.096330790830613      5.585818714745542      2.862141688013167
37     1     21.221449554029036      5.584919984964971      2.862588986634430
38     1     17.367264662400846      5.576253677201031      2.861493380410910
39     1     13.512810476838000      5.570833283593536      2.862625022856720
40     1      9.658356133173465      5.576253683118661      2.861493318568205
41     1      5.804171756836473      5.584919984700144      2.862588899368068
42     1     28.954911678561682      5.585818722705827      2.862141668455851
43     1     23.131688252243528      2.248162848688565      2.861445153359729
44     1     19.286852002477421      2.234098660683612      2.862588877636614
45     1     15.447603617022786      2.232219152891750      2.862716688963152
46     1     11.578017491042109      2.232219180291406      2.862716757916818
47     1      7.738769066705762      2.234098919565787      2.862588963650364
48     1      3.893932997954968      2.248162890581529      2.861445255685143
49     1     27.025621240169638      2.239709572279383      2.860363256562432
50     2     34.747227227506940     22.290356659326918      4.364249352331518
51     2     30.886424202228390     22.290356659326918      4.364249352331518
52     2     27.025621176949841     22.290356659326918      4.364249352331518
53     2     23.164818151671291     22.290356659326918      4.364249352331518
54     2     19.304015126392741     22.290356659326914      4.364249352331518
55     2     15.443212101114192     22.290356659326914      4.364249352331518
56     2     38.608030252785490     22.290356659326914      4.364249352331518
57     2     32.816825714867669     18.946803160427880      4.364249352331518
58     2     28.956022689589116     18.946803160427880      4.364249352331518
59     2     25.095219664310566     18.946803160427880      4.364249352331518
60     2     21.234416639032016     18.946803160427876      4.364249352331518
61     2     17.373613613753466     18.946803160427876      4.364249352331518
62     2     13.512810588474917     18.946803160427876      4.364249352331518
63     2     36.677628740146218     18.946803160427876      4.364249352331518
64     2     30.886424202228390     15.603249661528842      4.364249352331518
65     2     27.025621176949841     15.603249661528842      4.364249352331518
66     2     23.164818151671291     15.603249661528841      4.364249352331518
67     2     19.304015126392741     15.603249661528841      4.364249352331518
68     2     15.443212101114192     15.603249661528839      4.364249352331518
69     2     11.582409075835642     15.603249661528839      4.364249352331518
70     2     34.747227227506940     15.603249661528839      4.364249352331518
71     2     28.956022689589116     12.259696162629805      4.364249352331518
72     2     25.095219664310569     12.259696162629803      4.364249352331518
73     2     21.234416639032020     12.259696162629803      4.364249352331518
74     2     17.373613613753466     12.259696162629803      4.364249352331518
75     2     13.512810588474917     12.259696162629803      4.364249352331518
76     2      9.652007563196367     12.259696162629801      4.364249352331518
77     2     32.816825714867662     12.259696162629801      4.364249352331518
78     2     27.025621176949841      8.916142663730765      4.364249352331518
79     2     23.164818151671291      8.916142663730765      4.364249352331518
80     2     19.304015126392741      8.916142663730765      4.364249352331518
81     2     15.443212101114192      8.916142663730765      4.364249352331518
82     2     11.582409075835642      8.916142663730763      4.364249352331518
83     2      7.721606050557092      8.916142663730763      4.364249352331518
84     2     30.886424202228390      8.916142663730763      4.364249352331518
85     2     25.095219664310569      5.572589164831729      4.364249352331518
86     2     21.234416639032020      5.572589164831729      4.364249352331518
87     2     17.373613613753470      5.572589164831726      4.364249352331518
88     2     13.512810588474920      5.572589164831726      4.364249352331518
89     2      9.652007563196371      5.572589164831726      4.364249352331518
90     2      5.791204537917821      5.572589164831726      4.364249352331518
91     2     28.956022689589112      5.572589164831726      4.364249352331518
92     2     23.164818151671291      2.229035665932692      4.364249352331518
93     2     19.304015126392741      2.229035665932688      4.364249352331518
94     2     15.443212101114195      2.229035665932688      4.364249352331518
95     2     11.582409075835645      2.229035665932688      4.364249352331518
96     2      7.721606050557096      2.229035665932688      4.364249352331518
97     2      3.860803025278546      2.229035665932688      4.364249352331518
98     2     27.025621176949841      2.229035665932688      4.364249352331518
99     2     32.816825714867669     21.175838826360572      5.152332469775356
100    2     28.956022689589116     21.175838826360572      5.152332469775356
101    2     25.095219664310566     21.175838826360572      5.152332469775356
102    2     21.234416639032016     21.175838826360572      5.152332469775356
103    2     17.373613613753466     21.175838826360568      5.152332469775356
104    2     13.512810588474917     21.175838826360568      5.152332469775356
105    2     36.677628740146218     21.175838826360568      5.152332469775356
106    2     30.886424202228390     17.832285327461534      5.152332469775356
107    2     27.025621176949841     17.832285327461534      5.152332469775356
108    2     23.164818151671291     17.832285327461534      5.152332469775356
109    2     19.304015126392741     17.832285327461534      5.152332469775356
110    2     15.443212101114192     17.832285327461530      5.152332469775356
111    2     11.582409075835642     17.832285327461530      5.152332469775356
112    2     34.747227227506940     17.832285327461530      5.152332469775356
113    2     28.956022689589116     14.488731828562495      5.152332469775356
114    2     25.095219664310569     14.488731828562495      5.152332469775356
115    2     21.234416639032020     14.488731828562493      5.152332469775356
116    2     17.373613613753466     14.488731828562493      5.152332469775356
117    2     13.512810588474917     14.488731828562493      5.152332469775356
118    2      9.652007563196367     14.488731828562493      5.152332469775356
119    2     32.816825714867662     14.488731828562493      5.152332469775356
120    2     27.025621176949841     11.145178329663457      5.152332469775356
121    2     23.164818151671291     11.145178329663457      5.152332469775356
122    2     19.304015126392741     11.145178329663457      5.152332469775356
123    2     15.443212101114192     11.145178329663457      5.152332469775356
124    2     11.582409075835642     11.145178329663455      5.152332469775356
125    2      7.721606050557092     11.145178329663455      5.152332469775356
126    2     30.886424202228390     11.145178329663455      5.152332469775356
127    2     25.095219664310569      7.801624830764421      5.152332469775356
128    2     21.234416639032020      7.801624830764421      5.152332469775356
129    2     17.373613613753466      7.801624830764421      5.152332469775356
130    2     13.512810588474917      7.801624830764421      5.152332469775356
131    2      9.652007563196371      7.801624830764419      5.152332469775356
132    2      5.791204537917821      7.801624830764419      5.152332469775356
133    2     28.956022689589119      7.801624830764419      5.152332469775356
134    2     23.164818151671291      4.458071331865384      5.152332469775356
135    2     19.304015126392741      4.458071331865380      5.152332469775356
136    2     15.443212101114195      4.458071331865380      5.152332469775356
137    2     11.582409075835645      4.458071331865380      5.152332469775356
138    2      7.721606050557096      4.458071331865380      5.152332469775356
139    2      3.860803025278546      4.458071331865380      5.152332469775356
140    2     27.025621176949841      4.458071331865380      5.152332469775356
141    2     21.234416639032020      1.114517832966346      5.152332469775356
142    2     17.373613613753470      1.114517832966342      5.152332469775356
143    2     13.512810588474920      1.114517832966342      5.152332469775356
144    2      9.652007563196371      1.114517832966342      5.152332469775356
145    2      5.791204537917825      1.114517832966342      5.152332469775356
146    2      1.930401512639271      1.114517832966342      5.152332469775356
147    2     25.095219664310569      1.114517832966342      5.152332469775356
148    2     32.816825714867669     21.175838826360572      7.516581822106875
149    2     28.956022689589116     21.175838826360572      7.516581822106875
150    2     25.095219664310566     21.175838826360572      7.516581822106875
151    2     21.234416639032016     21.175838826360572      7.516581822106875
152    2     17.373613613753466     21.175838826360568      7.516581822106875
153    2     13.512810588474917     21.175838826360568      7.516581822106875
154    2     36.677628740146218     21.175838826360568      7.516581822106875
155    2     30.886424202228390     17.832285327461534      7.516581822106875
156    2     27.025621176949841     17.832285327461534      7.516581822106875
157    2     23.164818151671291     17.832285327461534      7.516581822106875
158    2     19.304015126392741     17.832285327461534      7.516581822106875
159    2     15.443212101114192     17.832285327461530      7.516581822106875
160    2     11.582409075835642     17.832285327461530      7.516581822106875
161    2     34.747227227506940     17.832285327461530      7.516581822106875
162    2     28.956022689589116     14.488731828562495      7.516581822106875
163    2     25.095219664310569     14.488731828562495      7.516581822106875
164    2     21.234416639032020     14.488731828562493      7.516581822106875
165    2     17.373613613753466     14.488731828562493      7.516581822106875
166    2     13.512810588474917     14.488731828562493      7.516581822106875
167    2      9.652007563196367     14.488731828562493      7.516581822106875
168    2     32.816825714867662     14.488731828562493      7.516581822106875
169    2     27.025621176949841     11.145178329663457      7.516581822106875
170    2     23.164818151671291     11.145178329663457      7.516581822106875
171    2     19.304015126392741     11.145178329663457      7.516581822106875
172    2     15.443212101114192     11.145178329663457      7.516581822106875
173    2     11.582409075835642     11.145178329663455      7.516581822106875
174    2      7.721606050557092     11.145178329663455      7.516581822106875
175    2     30.886424202228390     11.145178329663455      7.516581822106875
176    2     25.095219664310569      7.801624830764421      7.516581822106875
177    2     21.234416639032020      7.801624830764421      7.516581822106875
178    2     17.373613613753466      7.801624830764421      7.516581822106875
179    2     13.512810588474917      7.801624830764421      7.516581822106875
180    2      9.652007563196371      7.801624830764419      7.516581822106875
181    2      5.791204537917821      7.801624830764419      7.516581822106875
182    2     28.956022689589119      7.801624830764419      7.516581822106875
183    2     23.164818151671291      4.458071331865384      7.516581822106875
184    2     19.304015126392741      4.458071331865380      7.516581822106875
185    2     15.443212101114195      4.458071331865380      7.516581822106875
186    2     11.582409075835645      4.458071331865380      7.516581822106875
187    2      7.721606050557096      4.458071331865380      7.516581822106875
188    2      3.860803025278546      4.458071331865380      7.516581822106875
189    2     27.025621176949841      4.458071331865380      7.516581822106875
190    2     21.234416639032020      1.114517832966346      7.516581822106875
191    2     17.373613613753470      1.114517832966342      7.516581822106875
192    2     13.512810588474920      1.114517832966342      7.516581822106875
193    2      9.652007563196371      1.114517832966342      7.516581822106875
194    2      5.791204537917825      1.114517832966342      7.516581822106875
195    2      1.930401512639271      1.114517832966342      7.516581822106875
196    2     25.095219664310569      1.114517832966342      7.516581822106875
197    2     34.747000917843195     20.061191908752086      8.070310502817714
198    2     30.889246057729157     20.062990955926441      8.395323844268274
199    2     27.025620917304259     20.060619999322665      8.042748217959968
200    2     23.161995572544768     20.062991147244684      8.395324661661823
201    2     19.304241775582732     20.061191773408162      8.070319594720040
202    2     15.443059350322740     20.040203783521584      8.345292010077358
203    2     11.582562532394824     20.040203823053609      8.345291661657502
204    2     32.819681602497582     16.719379211654601      8.395321675564020
205    2     28.968531009322405     16.724991293738512      8.397067081643300
206    2     25.082710887581772     16.724991615949250      8.397068020517327
207    2     21.231560359441872     16.719380006700209      8.395323687880060
208    2     17.356447163899649     16.747780551788942      8.378158215773963
209    2     13.512810803371824     16.721151829966161      8.052875112689472
210    2      9.669174264162644     16.747779239463018      8.378156234171408
211    2     30.885815886626805     13.374566424389634      8.042740308547540
212    2     27.025621228217702     13.359771475813826      8.397067612061848
213    2     23.165426555745142     13.374566766963708      8.042749415922534
214    2     19.318123713327196     13.348610053571740      8.369554408928446
215    2     15.454698488602221     13.382897781262272      8.395312543764692
216    2     11.570922647727452     13.382897794953481      8.395310992187865
217    2      7.707497529918583     13.348610009603780      8.369551729324170
218    2     28.956056097150434     10.027382801133102      8.395322794377709
219    2     25.095186544672508     10.027382778290477      8.395323994303025
220    2     21.219295695005901     10.055683273579746      8.369554841995930
221    2     17.374522147284395     10.031186663570018      8.031844191424225
222    2     13.512810567940338     10.027582934102551      8.394301682267619
223    2      9.651098898149989     10.031186772103597      8.031833697110747
224    2      5.806325283113921     10.055683282416032      8.369551714230402
225    2     27.025621227507550      6.687369888970514      8.070320611267592
226    2     23.182226684350947      6.657236645541202      8.378158741283999
227    2     19.317277405358848      6.692715269178584      8.395313866319615
228    2     15.440545206411944      6.688648078345146      8.394302895249153
229    2     11.585075761773179      6.688647972244587      8.394300786128243
230    2      7.708343956784868      6.692715591772305      8.395309614707449
231    2      3.843394745692553      6.657237306103337      8.378156229409928
232    2     25.076854432796832      3.353982848823438      8.345292749799933
233    2     21.237346485931425      3.341863603772185      8.052878997919647
234    2     17.375389020128672      3.329266326285026      8.395314654916209
235    2     13.512810618312521      3.342505531082927      8.031841435886836
236    2      9.650232527080316      3.329266347634493      8.395311954365610
237    2      5.788274455885817      3.341863219261441      8.052870102748022
238    2      1.948766581198070      3.353982795434364      8.345292190828685
239    2     23.146605970062289      0.010694091205415      8.345292766084594
240    2     19.338587807737230     -0.000136832186039      8.378158744942375
241    2     15.413982041740674      0.000586115476811      8.369555983595939
242    2     11.611639031633917      0.000585858536516      8.369555535930271
243    2      7.687033051298902     -0.000137811032436      8.378158214164873
244    2      3.879015473620802      0.010693394321223      8.345292549178717
245    2      0.000000113545394      0.000002330731782      8.575650434233792
246    2     34.706102977078380     20.037575712395316     10.345375010289047
247    2     30.913702248390464     20.057422546977779     10.836073128961852
248    2     27.025622095196503     20.013214522128990     10.306105121943764
249    2     23.137538536076288     20.057424953266530     10.836074994109483
250    2     19.345138249435664     20.037579714826528     10.345377729617242
251    2     15.771764040008158     19.515699098135212     10.669947668120257
252    2     11.253856087907154     19.515697194442101     10.669946093543548
253    2     32.827089096849178     16.743342217362947     10.836068767178736
254    2     29.070683835883372     16.783968055645801     10.840281822868317
255    2     24.980560405648976     16.783968971374538     10.840283843450310
256    2     21.224153400307589     16.743345895545456     10.836073379956170
257    2     17.008646928122701     17.379817097501938     10.698106499218296
258    2     13.512809405156604     16.664274491446662     10.317229535252640
259    2     10.016973293572116     17.379814454425038     10.698103662635029
260    2     30.844765428751316     13.398267322451476     10.306100753317669
261    2     27.025622909328082     13.241816864379864     10.840282499688520
262    2     23.206479939156726     13.398267983831163     10.306099406837617
263    2     19.668523867657985     12.769767961781112     10.693807593235448
264    2     15.429318799889344     13.394458432741168     10.828829017405560
265    2     11.596298026938976     13.394459501146514     10.828826136460306
266    2      7.357096377388162     12.769767716752092     10.693801777516509
267    2     28.939008282723979     10.008986632856802     10.836070668443623
268    2     25.112238593633474     10.008987444249369     10.836073407642495
269    2     20.893202473046841     10.648559400118804     10.693808093524858
270    2     17.338726008071433     10.010519601266164     10.286514278328378
271    2     13.512809454963351     10.168527582800877     10.825074828192321
272    2      9.686892316470665     10.010519160201632     10.286512515600274
273    2      6.132417987223937     10.648559283612830     10.693801777536827
274    2     27.025624062663010      6.734597541981184     10.345376060450700
275    2     23.555690438335475      6.040016777639676     10.698107316922876
276    2     19.314602097040154      6.664954370630616     10.828831718980455
277    2     15.562605216557047      6.618175901589833     10.825077088066244
278    2     11.463012849902915      6.618175406638061     10.825073597076649
279    2      7.711018946630452      6.664956231338955     10.828824336756361
280    2      3.469932641985928      6.040018918274689     10.698103386170695
281    2     24.786973749557387      3.900903169221802     10.669948460543948
282    2     21.188091598821952      3.370302593244647     10.317233289686936
283    2     17.398091232683676      3.345461199754213     10.828832786189464
284    2     13.512808764243015      3.383839176007372     10.286518010295639
285    2      9.627530228724725      3.345464410052496     10.828828271683241
286    2      5.837530772222010      3.370304625950814     10.317229105245721
287    2      2.238649194235808      3.900905389370729     10.669946078601287
288    2     22.528019944272504     -0.011721266934327     10.669948850325749
289    2     20.059846069451901     -0.014954102206757     10.698108226608170
290    2     14.737490949997420     -0.013448724399962     10.693809303956636
291    2     12.288129030929454     -0.013448595698365     10.693808798657813
292    2      6.965775170465313     -0.014954015805047     10.698107120235212
293    2      4.497601919174467     -0.011720889982912     10.669948028054836
294    2     32.979300312654985     21.178714664506099     11.521829674577043
295    2     28.802822059991886     21.141967799091685     11.462037584990924
296    2     25.248421341025935     21.141967615731179     11.462036478212443
297    2     21.071939548308087     21.178716128842449     11.521832472793404
298    2     17.513915721535380     21.094835300113239     11.502922151524798
299    2     36.537328424755984     21.094834041298661     11.502919032630519
300    2     13.512809214703692     18.788611738152536     11.451382266664112
301    2     30.951345897189761     17.869764709739634     11.915764362693341
302    2     27.025623013795713     17.930508666756218     11.437578827749871
303    2     23.099898976598709     17.869767940100868     11.915765016900734
304    2     19.220283722096877     17.971555520142129     11.521833270895723
305    2     15.373445532116486     15.753495513612563     11.484526432135967
306    2     11.652172329379999     15.753494633827152     11.484525168846339
307    2     34.830957772687761     17.971548144643027     11.521829149589335
308    2     29.041090073357136     14.439618913214034     11.437572718271225
309    2     25.010158343283564     14.439620295168417     11.437577698112653
310    2     21.340346700115834     14.372994439562206     11.462038001334680
311    2     17.434865240581448     12.114689305992934     11.432975051812489
312    2     13.512806951472095     12.336081072820333     11.910047815037439
313    2      9.590752298758819     12.114686109421035     11.432966016965562
314    2     32.710896837846200     14.372991919484019     11.462031930017515
315    2     27.025625200533650     11.070214014566725     11.915762103354300
316    2     23.117551547151930     11.294785051657568     11.462038753157143
317    2     19.209057288692033      9.041697181477112     11.432976570989842
318    2     15.531639408481839      8.967201045652599     11.410875592071944
319    2     11.493976361972003      8.967201255242513     11.410867824054538
320    2      7.816562473048401      9.041698424597929     11.432966403056776
321    2     30.933693952196407     11.294786303895526     11.462031618352402
322    2     25.173968889682840      7.659478933074459     11.521827782474453
323    2     21.329652313174666      5.437051818400197     11.484533971992253
324    2     17.439759854599217      5.534401397610480     11.910050862891097
325    2     13.512808069269749      5.470482004616179     11.410874211493756
326    2      9.585857738320136      5.534403483846635     11.910047787740329
327    2      5.695970498038769      5.437054953565075     11.484524745280268
328    2     28.877279409291440      7.659480480912610     11.521826519850618
329    2     23.027821035077004      2.308135924122335     11.451386585280554
330    2     19.469014532233544      2.214335087260711     11.484533757413340
331    2     15.286997775777634      2.248499301910375     11.432974281528400
332    2     11.738619160290590      2.248499010964068     11.432973102738570
333    2      7.556607772957153      2.214337334695615     11.484525731899829
334    2      3.997802357067535      2.308138758276178     11.451380831809400
335    2     27.025623136511033      4.620082359727602     11.502918065574111
336    2      5.770471085139901      3.331587910535602     12.876058833772415
337    2     13.512806911671927      3.353551997404922     12.805590626775443
338    2     21.255153800991536      3.331582471777419     12.876067535061834
339    2      9.660661710619417     10.025663683198280     12.805583636021135
340    2     17.364954231355114     10.025664876781505     12.805596480531953
341    2     13.512807697297884     16.741707901016017     12.876055683675331
342    2     27.025625682242030      6.670245768811594     12.936233315232364
343    2     23.179110795763563     13.382467991624852     12.837599577886659
344    2     30.872136148310400     13.382465823245852     12.837589396322375
345    2     19.289407422450275     20.069757126926213     12.936247613665897
346    2     27.025621568353241     20.044819554945601     12.837593370994734
347    2     34.761834087575039     20.069751392232064     12.936245546650827
0.000000000000000      0.000000000000000      0.000000000000000
27.025621176949848      0.000000000000000      0.000000000000000
13.512810588474924     23.404874492293263      0.000000000000000
0.000000000000000      0.000000000000000     37.821246761657591
}
Driver = ConjugateGradient {
  MaxForceComponent = 1E-4
  MaxSteps = 0
  LatticeOpt = No
  MovedAtoms = "1:-1"
  OutputPrefix = "geo_end"
  AppendGeometries = No
  ConvergentForcesOnly = Yes
  Constraints = {}
}
Hamiltonian = DFTB {
  Charge = 0
  Filling = Fermi {
    Temperature = 1e-05
    IndependentKFilling = No
  }
  KPointsAndWeights = {
0.  0.  0. 1.0
  }
  MaxAngularMomentum = {
    H = "s"
    Si = "p"
  }
  MaxSCCIterations = 100
  SCC = YES
  SlaterKosterFiles = Type2FileNames {
    Prefix = /user/panosetti/data/progs/DFTB/parameters/pbc/pbc-0-3/
    Separator = "-"
    Suffix = ".skf"
    LowerCaseTypeName = No
  }
  PolynomialRepulsive = {}
  OldRepulsiveSum = No
  OrbitalResolvedSCC = No
  OldSKInterpolation = No
  ReadInitialCharges = No
  InitialCharges = {}
  SCCTolerance = 1.000000000000000E-005
  Mixer = Broyden {
    MixingParameter = 0.200000000000000
    CachedIterations = -1
    InverseJacobiWeight = 1.000000000000000E-002
    MinimalWeight = 1.00000000000000
    MaximalWeight = 100000.000000000
    WeightFactor = 1.000000000000000E-002
  }
  ElectricField = {}
  DampXH = No
  EwaldParameter = 0.000000000000000E+000
  SpinPolarisation = {}
  Eigensolver = DivideAndConquer {}
  Dispersion = {}
  ThirdOrder = No
  ThirdOrderFull = No
}
Options = {
  WriteResultsTag = Yes
  WriteEigenvectors = No
  WriteAutotestTag = No
  WriteDetailedXML = No
  WriteDetailedOut = Yes
  WriteBandOut = Yes
  AtomResolvedEnergies = No
  RandomSeed = 0
  WriteHS = No
  WriteRealHS = No
  MinimiseMemoryUsage = No
  ShowFoldedCoords = No
}
ParserOptions = {
  ParserVersion = 4
  WriteHSDInput = Yes
  WriteXMLInput = No
  StopAfterParsing = No
  IgnoreUnprocessedNodes = No
}
Analysis = {
  ProjectStates = {}
}
Parallel = {
  RowBlockSize = 32
  ColumnBlockSize = 32
  Groups = 1
}
