Geometry = GenFormat {
61  S
H    Si
1      1     11.582409075835647      8.906309322142173      2.861931711395688
2      1      7.718508045882461      8.917930368849040      2.861259247486378
3      1     15.446310105788838      8.917930368849031      2.861259247486380
4      1      9.660522672401900      5.577504422577177      2.861931704475178
5      1      5.791204537917817      5.561949772975050      2.861407557836226
6      1     13.504295479269409      5.577504422577179      2.861931704475180
7      1      7.712392852791186      2.234353940465613      2.861407546699756
8      1      3.870016223044479      2.234353940465590      2.861407546699758
9      1     11.582409075835635      2.225457518195746      2.861259248360396
10     2     11.582409075835647      8.916142663730767      4.364249352331518
11     2      7.721606050557098      8.916142663730767      4.364249352331518
12     2     15.443212101114197      8.916142663730765      4.364249352331518
13     2      9.652007563196372      5.572589164831729      4.364249352331518
14     2      5.791204537917823      5.572589164831729      4.364249352331518
15     2     13.512810588474922      5.572589164831728      4.364249352331518
16     2      7.721606050557098      2.229035665932691      4.364249352331518
17     2      3.860803025278549      2.229035665932691      4.364249352331518
18     2     11.582409075835647      2.229035665932690      4.364249352331518
19     2      9.652007563196372      7.801624830764421      5.152332469775356
20     2      5.791204537917823      7.801624830764420      5.152332469775356
21     2     13.512810588474922      7.801624830764420      5.152332469775356
22     2      7.721606050557098      4.458071331865383      5.152332469775356
23     2      3.860803025278549      4.458071331865383      5.152332469775356
24     2     11.582409075835647      4.458071331865382      5.152332469775356
25     2      5.791204537917824      1.114517832966344      5.152332469775356
26     2      1.930401512639275      1.114517832966344      5.152332469775356
27     2      9.652007563196374      1.114517832966343      5.152332469775356
28     2      9.488364265608631      8.028964432633504      7.413015835592883
29     2      5.597169065111912      7.991943606609811      7.538015471076605
30     2     13.758496179243210      7.950157656231296      7.363933192874775
31     2      7.648322674613389      4.583524101039294      7.335893779288567
32     2      3.857781273608520      4.604673749265467      7.577962674741361
33     2     11.703471959338637      4.115984504488412      7.526578738336088
34     2      5.771675706817800      1.088124320416762      7.561011584727358
35     2      1.916868574077324      1.119183836173879      7.552438850016680
36     2      9.708253414285146      1.030924406195721      7.506283145972888
37     2     11.850535514877100      7.565258984438433      8.648433620714412
38     2      7.536966847498388      6.819614312047697      8.097514643090294
39     2      3.810550652002417      6.813621503927664      8.622530843417188
40     2      9.488803269093815      3.254906982578130      8.153815103247201
41     2      5.822494751635232      3.384049015920632      8.194997960153010
42     2      2.189171487552995      3.246429671156334      8.581284121691667
43     2      7.792662790563664      0.044466134576787      8.407461427577802
44     2      3.803160928446024      0.082463045549027      8.661421464803976
45     2      0.018710794447766      0.090139720873775      8.594108607252993
46     2     13.801921112669499      8.426604864141673     10.272930415774859
47     2      8.724306156146591      6.006261096520199     10.041589602639418
48     2      4.733225655323364      7.178619112013365     13.991302994653607
49     2      7.648882272945853      3.247070253308436      9.879589944894144
50     2      6.898583154205234      4.514090362965144     11.718784484545026
51     2      3.259732103708819      5.415438897262907     13.406776235425585
52     2      9.745083649112170      0.719670998972866     12.621716069602204
53     2      3.279680916406541      2.295940879815424     10.756475662526592
54     2     12.722683237995785      8.345448896956174     13.238963544483367
55     2     14.983278636171018      8.574862633704369     12.489360487338910
56     2      9.287964523061525      8.419164845316411     10.683046883158903
57     2      4.685539818040724      1.546182286955460     12.398934949003079
58     2      4.625512573893954      3.925486438808336     12.168798469084743
59     2     10.408531238607038      5.851062491101762      8.316128451840589
60     2      6.380353645046004      6.573476108740826     12.433409906421931
61     2     11.573833980629491      8.642475351858758     11.293013290193880
0.000000000000000      0.000000000000000      0.000000000000000
11.582409075835649      0.000000000000000      0.000000000000000
5.791204537917825     10.030660496697113      0.000000000000000
0.000000000000000      0.000000000000000     37.821246761657591
}
Driver = ConjugateGradient {
  MaxForceComponent = 1E-4
  MaxSteps = 0
  LatticeOpt = No
  MovedAtoms = "1:-1"
  OutputPrefix = "geo_end"
  AppendGeometries = No
  ConvergentForcesOnly = Yes
  Constraints = {}
}
Hamiltonian = DFTB {
  EwaldParameter = 0.5
  Filling = Fermi {
    Temperature = 0.01
    IndependentKFilling = No
  }
  KPointsAndWeights = {
-0.33333333 -0.33333333  0.         1.0
-0.33333333  0.          0.         1.0
-0.33333333  0.33333333  0.         1.0
0.         -0.33333333  0.         1.0
0. 0. 0. 1.0
0.         0.33333333 0.         1.0
0.33333333 -0.33333333  0.         1.0
0.33333333 0.         0.         1.0
0.33333333 0.33333333 0.         1.0
  }
  MaxAngularMomentum = {
    H = s
    Si = p
  }
  SCC = YES
  SlaterKosterFiles = Type2FileNames {
    Prefix = /user/panosetti/data/progs/DFTB/parameters/pbc/pbc-0-3/
    Separator = "-"
    Suffix = ".skf"
    LowerCaseTypeName = No
  }
  PolynomialRepulsive = {}
  OldRepulsiveSum = No
  OrbitalResolvedSCC = No
  OldSKInterpolation = No
  Charge = 0.000000000000000E+000
  ReadInitialCharges = No
  InitialCharges = {}
  SCCTolerance = 1.000000000000000E-005
  MaxSCCIterations = 100
  Mixer = Broyden {
    MixingParameter = 0.200000000000000
    CachedIterations = -1
    InverseJacobiWeight = 1.000000000000000E-002
    MinimalWeight = 1.00000000000000
    MaximalWeight = 100000.000000000
    WeightFactor = 1.000000000000000E-002
  }
  ElectricField = {}
  DampXH = No
  SpinPolarisation = {}
  Eigensolver = DivideAndConquer {}
  Dispersion = {}
  ManyBodyDispersion = {}
  ThirdOrder = No
  ThirdOrderFull = No
}
Options = {
  WriteResultsTag = Yes
  WriteEigenvectors = No
  WriteAutotestTag = No
  WriteDetailedXML = No
  WriteDetailedOut = Yes
  WriteBandOut = Yes
  AtomResolvedEnergies = No
  RandomSeed = 0
  WriteHS = No
  WriteRealHS = No
  WriteCPA = No
  MinimiseMemoryUsage = No
  ShowFoldedCoords = No
}
ParserOptions = {
  IgnoreUnprocessedNodes = Yes
  ParserVersion = 4
  WriteHSDInput = Yes
  WriteXMLInput = No
  StopAfterParsing = No
}
Analysis = {
  ProjectStates = {}
}
Parallel = {
  RowBlockSize = 32
  ColumnBlockSize = 32
  Groups = 1
}
