Geometry = GenFormat {
61  S
H    Si
1      1     11.582409075835647      8.906309322142173      2.861931711395688
2      1      7.718508045882461      8.917930368849040      2.861259247486378
3      1     15.446310105788838      8.917930368849031      2.861259247486380
4      1      9.660522672401900      5.577504422577177      2.861931704475178
5      1      5.791204537917817      5.561949772975050      2.861407557836226
6      1     13.504295479269409      5.577504422577179      2.861931704475180
7      1      7.712392852791186      2.234353940465613      2.861407546699756
8      1      3.870016223044479      2.234353940465590      2.861407546699758
9      1     11.582409075835635      2.225457518195746      2.861259248360396
10     2     11.582409075835647      8.916142663730767      4.364249352331518
11     2      7.721606050557098      8.916142663730767      4.364249352331518
12     2     15.443212101114197      8.916142663730765      4.364249352331518
13     2      9.652007563196372      5.572589164831729      4.364249352331518
14     2      5.791204537917823      5.572589164831729      4.364249352331518
15     2     13.512810588474922      5.572589164831728      4.364249352331518
16     2      7.721606050557098      2.229035665932691      4.364249352331518
17     2      3.860803025278549      2.229035665932691      4.364249352331518
18     2     11.582409075835647      2.229035665932690      4.364249352331518
19     2      9.652007563196372      7.801624830764421      5.152332469775356
20     2      5.791204537917823      7.801624830764420      5.152332469775356
21     2     13.512810588474922      7.801624830764420      5.152332469775356
22     2      7.721606050557098      4.458071331865383      5.152332469775356
23     2      3.860803025278549      4.458071331865383      5.152332469775356
24     2     11.582409075835647      4.458071331865382      5.152332469775356
25     2      5.791204537917824      1.114517832966344      5.152332469775356
26     2      1.930401512639275      1.114517832966344      5.152332469775356
27     2      9.652007563196374      1.114517832966343      5.152332469775356
28     2      9.736761866093861      7.874120278242019      7.470117671093148
29     2      5.729525280353012      7.982672742504915      7.573142132257132
30     2     13.486192998171465      7.951398885527190      7.478635893362518
31     2      7.738927773377298      4.558187760573181      7.559342250901032
32     2      3.858909599802602      4.568031014672530      7.526302867976582
33     2     11.646566332093759      4.428403314874894      7.471326867408317
34     2      5.861599158284943      1.219011221310959      7.448650226604682
35     2      2.009012035381258      1.064182823192752      7.650422106545490
36     2      9.797416553697760      1.237707561692152      7.617983202694360
37     2     11.645607078320817      6.691909159659884      8.199053221809843
38     2      7.729748529439297      6.861358825063338      8.218443122008415
39     2      3.753336862099613      6.818146770318992      8.426571701803935
40     2      9.700611941175691      3.559046735126904      8.480532477425571
41     2      5.767421004714391      3.416554235484688      8.345558339242068
42     2      1.989093723742826      3.407128395507037      8.345440044805104
43     2      7.795937540855355      0.163348708583206      8.292082596244160
44     2      4.072476892716897      0.015556926582702      8.476424001919675
45     2      0.057235585930463      0.093102826863499      8.672244964699898
46     2     14.378998131099264      7.646935842113278     10.718533548307555
47     2      8.622042029522648      7.111022912712574     11.094493052509995
48     2      3.941070905511829      5.806715029525144     11.770970586776867
49     2     10.214515284641388      5.130673260962173     10.268912728814916
50     2      6.640338293971651      6.343177464372198     11.265202644700038
51     2      2.015096938955110      4.959915307941298     11.183766853456010
52     2      6.932631034767870      0.428195273215047     11.300849148792581
53     2      5.071487734551832      2.095351772282477     10.222150856925396
54     2     10.629259684541635      9.075893333805503     11.171078709248448
55     2     13.581394796679984      9.089637785270501     12.185890218370737
56     2      5.623579217991469      6.934148918351266     13.481854885300031
57     2      8.489827963850145      1.125631114892000     13.360292383956088
58     2      5.633249851456024      4.225364291181543     10.958357878718125
59     2     11.660426486810072      6.542203896431419      8.301445919938825
60     2      5.932523220966637      4.528514003653277     13.127627170689513
61     2     11.386608770135616      8.042147564917670     12.531372918295808
0.000000000000000      0.000000000000000      0.000000000000000
11.582409075835649      0.000000000000000      0.000000000000000
5.791204537917825     10.030660496697113      0.000000000000000
0.000000000000000      0.000000000000000     37.821246761657591
}
Driver = ConjugateGradient {
  MaxForceComponent = 1E-4
  MaxSteps = 0
  LatticeOpt = No
  MovedAtoms = "1:-1"
  OutputPrefix = "geo_end"
  AppendGeometries = No
  ConvergentForcesOnly = Yes
  Constraints = {}
}
Hamiltonian = DFTB {
  EwaldParameter = 0.5
  Filling = Fermi {
    Temperature = 0.01
    IndependentKFilling = No
  }
  KPointsAndWeights = {
-0.33333333 -0.33333333  0.         1.0
-0.33333333  0.          0.         1.0
-0.33333333  0.33333333  0.         1.0
0.         -0.33333333  0.         1.0
0. 0. 0. 1.0
0.         0.33333333 0.         1.0
0.33333333 -0.33333333  0.         1.0
0.33333333 0.         0.         1.0
0.33333333 0.33333333 0.         1.0
  }
  MaxAngularMomentum = {
    H = s
    Si = p
  }
  SCC = YES
  SlaterKosterFiles = Type2FileNames {
    Prefix = /user/panosetti/data/progs/DFTB/parameters/pbc/pbc-0-3/
    Separator = "-"
    Suffix = ".skf"
    LowerCaseTypeName = No
  }
  PolynomialRepulsive = {}
  OldRepulsiveSum = No
  OrbitalResolvedSCC = No
  OldSKInterpolation = No
  Charge = 0.000000000000000E+000
  ReadInitialCharges = No
  InitialCharges = {}
  SCCTolerance = 1.000000000000000E-005
  MaxSCCIterations = 100
  Mixer = Broyden {
    MixingParameter = 0.200000000000000
    CachedIterations = -1
    InverseJacobiWeight = 1.000000000000000E-002
    MinimalWeight = 1.00000000000000
    MaximalWeight = 100000.000000000
    WeightFactor = 1.000000000000000E-002
  }
  ElectricField = {}
  DampXH = No
  SpinPolarisation = {}
  Eigensolver = DivideAndConquer {}
  Dispersion = {}
  ManyBodyDispersion = {}
  ThirdOrder = No
  ThirdOrderFull = No
}
Options = {
  WriteResultsTag = Yes
  WriteEigenvectors = No
  WriteAutotestTag = No
  WriteDetailedXML = No
  WriteDetailedOut = Yes
  WriteBandOut = Yes
  AtomResolvedEnergies = No
  RandomSeed = 0
  WriteHS = No
  WriteRealHS = No
  WriteCPA = No
  MinimiseMemoryUsage = No
  ShowFoldedCoords = No
}
ParserOptions = {
  IgnoreUnprocessedNodes = Yes
  ParserVersion = 4
  WriteHSDInput = Yes
  WriteXMLInput = No
  StopAfterParsing = No
}
Analysis = {
  ProjectStates = {}
}
Parallel = {
  RowBlockSize = 32
  ColumnBlockSize = 32
  Groups = 1
}
