Geometry = GenFormat {
347  S
H    Si
1      1     34.736369052352437     22.282326522065219      2.862037519772535
2      1     30.879986982280823     22.300976636414930      2.861790126319505
3      1     27.025621183876535     22.282182648361633      2.862337668375441
4      1     23.171255430386328     22.300976712994760      2.861790805620227
5      1     19.314873267705273     22.282326533725840      2.862038342300809
6      1     15.452592559958799     22.284939993467439      2.860330629795284
7      1     38.598649732739197     22.284939912970849      2.860330301020305
8      1     32.816047601459857     18.946352907305506      2.862143861727513
9      1     28.951152308424053     18.948271933024969      2.862348912164780
10     1     25.100090104646750     18.948271953988201      2.862349276875813
11     1     21.235194725620321     18.946352950115006      2.862144639263010
12     1     17.385996183037179     18.941413533795959      2.862038081140452
13     1     13.512810588972014     18.908955323270579      2.861362834523789
14     1     36.665246130551047     18.941413479783712      2.862037547801817
15     1     30.885261813156411     15.598295927050122      2.862348936962567
16     1     27.025621230939702     15.603248795322385      2.861645961917318
17     1     23.165980539811311     15.598295956307075      2.862349377535022
18     1     19.298035620160011     15.592363457475544      2.861790632473923
19     1     15.446750409199701     15.585382792263543      2.862546718055766
20     1     11.578870715296359     15.585382747860583      2.862546643267561
21     1     34.753206690613247     15.592363490975844      2.861790288581970
22     1     28.959730722747160     12.263178123329482      2.862349424091003
23     1     25.091511703741908     12.263178067309724      2.862349499176098
24     1     21.241494769179550     12.263781740353872      2.862337838732763
25     1     17.368581670514949     12.261729912087720      2.862651261601711
26     1     13.512810583309474     12.253064307115981      2.861618991726257
27     1      9.657039494173665     12.261729890921480      2.862651547317218
28     1     32.809747486973286     12.263781804687865      2.862337898908679
29     1     27.025621200299078      8.917040187457525      2.862145134065044
30     1     23.152401650109216      8.916405929981325      2.861790920488885
31     1     19.303261257740679      8.910766613484796      2.862651282835902
32     1     15.445781899123270      8.917625400628372      2.862595364247219
33     1     11.579839189132242      8.917625422261588      2.862595767687957
34     1      7.722359899211259      8.910766604150764      2.862651953365204
35     1     30.898840748611104      8.916405963676684      2.861791253341471
36     1     25.096744243125318      5.586006492628316      2.862038606485005
37     1     21.220713631891687      5.584585552922033      2.862546792458569
38     1     17.367871018174895      5.575903609928723      2.861618750432975
39     1     13.512810562742199      5.569620711614075      2.862595497129465
40     1      9.657750092575482      5.575903577582794      2.861619475792950
41     1      5.804907573004023      5.584585545744490      2.862547547052174
42     1     28.954498130542802      5.586006519140815      2.862038894157203
43     1     23.132041268609058      2.247959048446860      2.861362991803381
44     1     19.286773669765029      2.234903214925441      2.862546448394214
45     1     15.447490120880939      2.232375120895018      2.862651141913219
46     1     11.578131012921160      2.232375108131706      2.862651532211990
47     1      7.738847450481620      2.234903265595120      2.862547283184650
48     1      3.893579918249119      2.247959053354005      2.861363602673625
49     1     27.025621216099456      2.239866755358237      2.860330928660533
50     2     34.747227227506940     22.290356659326918      4.364249352331518
51     2     30.886424202228390     22.290356659326918      4.364249352331518
52     2     27.025621176949841     22.290356659326918      4.364249352331518
53     2     23.164818151671291     22.290356659326918      4.364249352331518
54     2     19.304015126392741     22.290356659326914      4.364249352331518
55     2     15.443212101114192     22.290356659326914      4.364249352331518
56     2     38.608030252785490     22.290356659326914      4.364249352331518
57     2     32.816825714867669     18.946803160427880      4.364249352331518
58     2     28.956022689589116     18.946803160427880      4.364249352331518
59     2     25.095219664310566     18.946803160427880      4.364249352331518
60     2     21.234416639032016     18.946803160427876      4.364249352331518
61     2     17.373613613753466     18.946803160427876      4.364249352331518
62     2     13.512810588474917     18.946803160427876      4.364249352331518
63     2     36.677628740146218     18.946803160427876      4.364249352331518
64     2     30.886424202228390     15.603249661528842      4.364249352331518
65     2     27.025621176949841     15.603249661528842      4.364249352331518
66     2     23.164818151671291     15.603249661528841      4.364249352331518
67     2     19.304015126392741     15.603249661528841      4.364249352331518
68     2     15.443212101114192     15.603249661528839      4.364249352331518
69     2     11.582409075835642     15.603249661528839      4.364249352331518
70     2     34.747227227506940     15.603249661528839      4.364249352331518
71     2     28.956022689589116     12.259696162629805      4.364249352331518
72     2     25.095219664310569     12.259696162629803      4.364249352331518
73     2     21.234416639032020     12.259696162629803      4.364249352331518
74     2     17.373613613753466     12.259696162629803      4.364249352331518
75     2     13.512810588474917     12.259696162629803      4.364249352331518
76     2      9.652007563196367     12.259696162629801      4.364249352331518
77     2     32.816825714867662     12.259696162629801      4.364249352331518
78     2     27.025621176949841      8.916142663730765      4.364249352331518
79     2     23.164818151671291      8.916142663730765      4.364249352331518
80     2     19.304015126392741      8.916142663730765      4.364249352331518
81     2     15.443212101114192      8.916142663730765      4.364249352331518
82     2     11.582409075835642      8.916142663730763      4.364249352331518
83     2      7.721606050557092      8.916142663730763      4.364249352331518
84     2     30.886424202228390      8.916142663730763      4.364249352331518
85     2     25.095219664310569      5.572589164831729      4.364249352331518
86     2     21.234416639032020      5.572589164831729      4.364249352331518
87     2     17.373613613753470      5.572589164831726      4.364249352331518
88     2     13.512810588474920      5.572589164831726      4.364249352331518
89     2      9.652007563196371      5.572589164831726      4.364249352331518
90     2      5.791204537917821      5.572589164831726      4.364249352331518
91     2     28.956022689589112      5.572589164831726      4.364249352331518
92     2     23.164818151671291      2.229035665932692      4.364249352331518
93     2     19.304015126392741      2.229035665932688      4.364249352331518
94     2     15.443212101114195      2.229035665932688      4.364249352331518
95     2     11.582409075835645      2.229035665932688      4.364249352331518
96     2      7.721606050557096      2.229035665932688      4.364249352331518
97     2      3.860803025278546      2.229035665932688      4.364249352331518
98     2     27.025621176949841      2.229035665932688      4.364249352331518
99     2     32.816825714867669     21.175838826360572      5.152332469775356
100    2     28.956022689589116     21.175838826360572      5.152332469775356
101    2     25.095219664310566     21.175838826360572      5.152332469775356
102    2     21.234416639032016     21.175838826360572      5.152332469775356
103    2     17.373613613753466     21.175838826360568      5.152332469775356
104    2     13.512810588474917     21.175838826360568      5.152332469775356
105    2     36.677628740146218     21.175838826360568      5.152332469775356
106    2     30.886424202228390     17.832285327461534      5.152332469775356
107    2     27.025621176949841     17.832285327461534      5.152332469775356
108    2     23.164818151671291     17.832285327461534      5.152332469775356
109    2     19.304015126392741     17.832285327461534      5.152332469775356
110    2     15.443212101114192     17.832285327461530      5.152332469775356
111    2     11.582409075835642     17.832285327461530      5.152332469775356
112    2     34.747227227506940     17.832285327461530      5.152332469775356
113    2     28.956022689589116     14.488731828562495      5.152332469775356
114    2     25.095219664310569     14.488731828562495      5.152332469775356
115    2     21.234416639032020     14.488731828562493      5.152332469775356
116    2     17.373613613753466     14.488731828562493      5.152332469775356
117    2     13.512810588474917     14.488731828562493      5.152332469775356
118    2      9.652007563196367     14.488731828562493      5.152332469775356
119    2     32.816825714867662     14.488731828562493      5.152332469775356
120    2     27.025621176949841     11.145178329663457      5.152332469775356
121    2     23.164818151671291     11.145178329663457      5.152332469775356
122    2     19.304015126392741     11.145178329663457      5.152332469775356
123    2     15.443212101114192     11.145178329663457      5.152332469775356
124    2     11.582409075835642     11.145178329663455      5.152332469775356
125    2      7.721606050557092     11.145178329663455      5.152332469775356
126    2     30.886424202228390     11.145178329663455      5.152332469775356
127    2     25.095219664310569      7.801624830764421      5.152332469775356
128    2     21.234416639032020      7.801624830764421      5.152332469775356
129    2     17.373613613753466      7.801624830764421      5.152332469775356
130    2     13.512810588474917      7.801624830764421      5.152332469775356
131    2      9.652007563196371      7.801624830764419      5.152332469775356
132    2      5.791204537917821      7.801624830764419      5.152332469775356
133    2     28.956022689589119      7.801624830764419      5.152332469775356
134    2     23.164818151671291      4.458071331865384      5.152332469775356
135    2     19.304015126392741      4.458071331865380      5.152332469775356
136    2     15.443212101114195      4.458071331865380      5.152332469775356
137    2     11.582409075835645      4.458071331865380      5.152332469775356
138    2      7.721606050557096      4.458071331865380      5.152332469775356
139    2      3.860803025278546      4.458071331865380      5.152332469775356
140    2     27.025621176949841      4.458071331865380      5.152332469775356
141    2     21.234416639032020      1.114517832966346      5.152332469775356
142    2     17.373613613753470      1.114517832966342      5.152332469775356
143    2     13.512810588474920      1.114517832966342      5.152332469775356
144    2      9.652007563196371      1.114517832966342      5.152332469775356
145    2      5.791204537917825      1.114517832966342      5.152332469775356
146    2      1.930401512639271      1.114517832966342      5.152332469775356
147    2     25.095219664310569      1.114517832966342      5.152332469775356
148    2     32.816825714867669     21.175838826360572      7.516581822106875
149    2     28.956022689589116     21.175838826360572      7.516581822106875
150    2     25.095219664310566     21.175838826360572      7.516581822106875
151    2     21.234416639032016     21.175838826360572      7.516581822106875
152    2     17.373613613753466     21.175838826360568      7.516581822106875
153    2     13.512810588474917     21.175838826360568      7.516581822106875
154    2     36.677628740146218     21.175838826360568      7.516581822106875
155    2     30.886424202228390     17.832285327461534      7.516581822106875
156    2     27.025621176949841     17.832285327461534      7.516581822106875
157    2     23.164818151671291     17.832285327461534      7.516581822106875
158    2     19.304015126392741     17.832285327461534      7.516581822106875
159    2     15.443212101114192     17.832285327461530      7.516581822106875
160    2     11.582409075835642     17.832285327461530      7.516581822106875
161    2     34.747227227506940     17.832285327461530      7.516581822106875
162    2     28.956022689589116     14.488731828562495      7.516581822106875
163    2     25.095219664310569     14.488731828562495      7.516581822106875
164    2     21.234416639032020     14.488731828562493      7.516581822106875
165    2     17.373613613753466     14.488731828562493      7.516581822106875
166    2     13.512810588474917     14.488731828562493      7.516581822106875
167    2      9.652007563196367     14.488731828562493      7.516581822106875
168    2     32.816825714867662     14.488731828562493      7.516581822106875
169    2     27.025621176949841     11.145178329663457      7.516581822106875
170    2     23.164818151671291     11.145178329663457      7.516581822106875
171    2     19.304015126392741     11.145178329663457      7.516581822106875
172    2     15.443212101114192     11.145178329663457      7.516581822106875
173    2     11.582409075835642     11.145178329663455      7.516581822106875
174    2      7.721606050557092     11.145178329663455      7.516581822106875
175    2     30.886424202228390     11.145178329663455      7.516581822106875
176    2     25.095219664310569      7.801624830764421      7.516581822106875
177    2     21.234416639032020      7.801624830764421      7.516581822106875
178    2     17.373613613753466      7.801624830764421      7.516581822106875
179    2     13.512810588474917      7.801624830764421      7.516581822106875
180    2      9.652007563196371      7.801624830764419      7.516581822106875
181    2      5.791204537917821      7.801624830764419      7.516581822106875
182    2     28.956022689589119      7.801624830764419      7.516581822106875
183    2     23.164818151671291      4.458071331865384      7.516581822106875
184    2     19.304015126392741      4.458071331865380      7.516581822106875
185    2     15.443212101114195      4.458071331865380      7.516581822106875
186    2     11.582409075835645      4.458071331865380      7.516581822106875
187    2      7.721606050557096      4.458071331865380      7.516581822106875
188    2      3.860803025278546      4.458071331865380      7.516581822106875
189    2     27.025621176949841      4.458071331865380      7.516581822106875
190    2     21.234416639032020      1.114517832966346      7.516581822106875
191    2     17.373613613753470      1.114517832966342      7.516581822106875
192    2     13.512810588474920      1.114517832966342      7.516581822106875
193    2      9.652007563196371      1.114517832966342      7.516581822106875
194    2      5.791204537917825      1.114517832966342      7.516581822106875
195    2      1.930401512639271      1.114517832966342      7.516581822106875
196    2     25.095219664310569      1.114517832966342      7.516581822106875
197    2     34.746957018802306     20.061166356318168      8.071240953943809
198    2     30.889241076322033     20.062843217321287      8.395327082751207
199    2     27.025620857494001     20.061031866875588      8.042556227756110
200    2     23.162001111634272     20.062843177420188      8.395327016726466
201    2     19.304285586200809     20.061166379940605      8.071243487290204
202    2     15.443105365746224     20.040082865061059      8.345849664519527
203    2     11.582515939496536     20.040082971056027      8.345849244146820
204    2     32.819550905749487     16.719448725956511      8.395325472624563
205    2     28.968600851713632     16.725031488213773      8.397068920161164
206    2     25.082641249632690     16.725031750912429      8.397069229824913
207    2     21.231691623089784     16.719449237676976      8.395326293577073
208    2     17.356417899306827     16.747778835216693      8.378704564830104
209    2     13.512810784514373     16.720346128154791      8.052700505707675
210    2      9.669203207436798     16.747778233920819      8.378703324949504
211    2     30.886172615052040     13.374360256543254      8.042554253042423
212    2     27.025621278118091     13.359690791692431      8.397069157680287
213    2     23.165069768728159     13.374360641526597      8.042557062204530
214    2     19.318035826028936     13.348400697166811      8.369454162572042
215    2     15.455014191901599     13.382832756493764      8.394505322156604
216    2     11.570606749266547     13.382832532756190      8.394504322171796
217    2      7.707585323180268     13.348400146032935      8.369452417894893
218    2     28.955930731591451     10.027461496441287      8.395325575088767
219    2     25.095312035187476     10.027461519004206      8.395326463463228
220    2     21.219070505019001     10.055711594323663      8.369454002892159
221    2     17.374438056826062     10.031138145039730      8.032321769371904
222    2     13.512810257348605     10.027728402151713      8.394869351242923
223    2      9.651183062150105     10.031137748864232      8.032319959112034
224    2      5.806550974694400     10.055711738980051      8.369452171261569
225    2     27.025621323558610      6.687420699474622      8.071243857158359
226    2     23.182210582366551      6.657212045935708      8.378703813439147
227    2     19.317379248985930      6.693021147340623      8.394505302010032
228    2     15.440670993703325      6.688575493376827      8.394869323568543
229    2     11.584949289578832      6.688575356315519      8.394868531335311
230    2      7.708242103476520      6.693021097445655      8.394503314403227
231    2      3.843410903774747      6.657211858546935      8.378702521642133
232    2     25.076772609726245      3.354083293867799      8.345849371147699
233    2     21.236648912251631      3.342266607109103      8.052701788794653
234    2     17.375175029633898      3.329025317917490      8.394505846910302
235    2     13.512810212296657      3.342602998233293      8.032320863851456
236    2      9.650445883021890      3.329025583086481      8.394504864703451
237    2      5.788972548335509      3.342266543930974      8.052700344095760
238    2      1.948849044409383      3.354083562030814      8.345849127582587
239    2     23.146477995685981      0.010714402736737      8.345849684679449
240    2     19.338601367214530     -0.000111134332349      8.378704263574303
241    2     15.413845167118685      0.000767027603832      8.369454527618757
242    2     11.611775793591073      0.000766968014528      8.369454443907660
243    2      7.687019250066579     -0.000111007907460      8.378704216075777
244    2      3.879143807365412      0.010714623226617      8.345849862852047
245    2      0.000000099432774      0.000002647291287      8.574721615781323
246    2     34.706610520312672     20.037870186586776     10.346022713603501
247    2     30.917028422662536     20.056585539477396     10.836135111401935
248    2     27.025621822101659     20.011288183626508     10.305380205036673
249    2     23.134214594930665     20.056585693887580     10.836136114734817
250    2     19.344630937509386     20.037872601294072     10.346027782289514
251    2     15.770783345977192     19.514371569326425     10.670872266397454
252    2     11.254835230841053     19.514371156244799     10.670871409743999
253    2     32.828024666149709     16.746644100873294     10.836132420731273
254    2     29.072357882214604     16.784935107404664     10.840224141887404
255    2     24.978886197349020     16.784936046123818     10.840225586541083
256    2     21.223218543304331     16.746645420542979     10.836135103119977
257    2     17.007145699673245     17.377840639770863     10.699002991326351
258    2     13.512810028431947     16.670647639663070     10.316922966526009
259    2     10.018474043528125     17.377840204907240     10.699001144811415
260    2     30.843096016713581     13.399231001153936     10.305379892246110
261    2     27.025622853102902     13.239883359680952     10.840225304590971
262    2     23.208147946531344     13.399231185555887     10.305383061125159
263    2     19.667057052816041     12.769282685988330     10.693853300776397
264    2     15.427974463343450     13.396503982195307     10.827202670893064
265    2     11.597644184095945     13.396504730788447     10.827201245405853
266    2      7.358563162174208     12.769282853393843     10.693850211737606
267    2     28.936617067906273     10.006526412978424     10.836132862954333
268    2     25.114627325791929     10.006526003048419     10.836134546462018
269    2     20.892049616039813     10.647529668247488     10.693853398454115
270    2     17.336762503272531     10.009384665935475     10.286517840183636
271    2     13.512809906799763     10.167538738724099     10.825805859955429
272    2      9.688857181839921     10.009384604447972     10.286515732466475
273    2      6.133571097154610     10.647530610433837     10.693850056004003
274    2     27.025622819413712      6.734010772240542     10.346023647187131
275    2     23.553227484288652      6.039704657717230     10.699001779558875
276    2     19.315701673245968      6.662765832978242     10.827202674628188
277    2     15.561750289596501      6.618669027347966     10.825805370332979
278    2     11.463869329997429      6.618668915908474     10.825804335635722
279    2      7.709919419774610      6.662766607228042     10.827199790767192
280    2      3.472394699383925      6.039705294703511     10.698999725799961
281    2     24.785332561637944      3.900718342516727     10.670871277704448
282    2     21.193610496807985      3.367116675618233     10.316921389630538
283    2     17.400535545588074      3.345602992199422     10.827203594227436
284    2     13.512809788556497      3.386106761445014     10.286515025843377
285    2      9.625085648750835      3.345605104053104     10.827202139699185
286    2      5.832011299497540      3.367117677600503     10.316921425882210
287    2      2.240289147625933      3.900719665768950     10.670870258002317
288    2     22.527359365384857     -0.010208027895310     10.670873199989385
289    2     20.058885095022653     -0.012665882281711     10.699003833745545
290    2     14.737805757993875     -0.011935330294860     10.693854235959295
291    2     12.287815667892648     -0.011935282183195     10.693853981580901
292    2      6.966736040889793     -0.012664303425899     10.699003633528189
293    2      4.498261557328707     -0.010206183884182     10.670873042875774
294    2     32.980794512790233     21.179408954572548     11.523798314877899
295    2     28.804754975841220     21.142089223577763     11.458537617633283
296    2     25.246488525542787     21.142089278100293     11.458537577710507
297    2     21.070446627140452     21.179409859326555     11.523800192201250
298    2     17.513600532477870     21.095017793803081     11.502857260044195
299    2     36.537642640774983     21.095017468536525     11.502854772021360
300    2     13.512808841015632     18.788264962019511     11.456920531031377
301    2     30.951770671520730     17.870013016953198     11.917362799405769
302    2     27.025622529872297     17.928630429075284     11.437440565467474
303    2     23.099473659222124     17.870014225903709     11.917364571048658
304    2     19.218937043183189     17.972502080998666     11.523801564635304
305    2     15.370197541524654     15.753839601356326     11.482952967020925
306    2     11.655421329799429     15.753840073384566     11.482951558927020
307    2     34.832304608241010     17.972498115707811     11.523798681657052
308    2     29.039462030758248     14.440558667378854     11.437438316769390
309    2     25.011783370653351     14.440558865502400     11.437440782148961
310    2     21.339277694752507     14.374606182952441     11.458540820562208
311    2     17.432107290050933     12.114429865909345     11.432173758316184
312    2     13.512808946654628     12.336291934380702     11.907615115466699
313    2      9.593511728559777     12.114427987470384     11.432169069536531
314    2     32.711966100402890     14.374606397639420     11.458537134751497
315    2     27.025623217285688     11.069721278328439     11.917360987821429
316    2     23.118413686132943     11.293053030301550     11.458540390265663
317    2     19.207455496848397      9.039435999474231     11.432174558211518
318    2     15.531009203738915      8.966835379381994     11.412239864531584
319    2     11.494609209782071      8.966835743653606     11.412235447012110
320    2      7.818165141510206      9.039437168181477     11.432168822138504
321    2     30.932829819369509     11.293052634311470     11.458536660308223
322    2     25.174114120475551      7.657837848730499     11.523793955438430
323    2     21.328325608186184      5.434067170974416     11.482955228402211
324    2     17.439944088217636      5.534294958794275     11.907615432730061
325    2     13.512809524388462      5.471211406446430     11.412237671543982
326    2      9.585675525042365      5.534295954220570     11.907613030389365
327    2      5.697296261981363      5.434067118450861     11.482950855441581
328    2     28.877131503288386      7.657838935135556     11.523792941487647
329    2     23.027520521787189      2.308309883244178     11.456920788426006
330    2     19.470936338109610      2.216976581813173     11.482954853903815
331    2     15.288156771548392      2.251015559084878     11.432171820124189
332    2     11.737462452538463      2.251015440950742     11.432170771281497
333    2      7.554684393953435      2.216979454366644     11.482951894501188
334    2      3.998103154875892      2.308313352499877     11.456919371611258
335    2     27.025621874590993      4.619718037095039     11.502851082206472
336    2      5.773190234348217      3.333157230233713     12.883462590647786
337    2     13.512808545773986      3.353173880041753     12.806765420928000
338    2     21.252432947914642      3.333154047536969     12.883467587899224
339    2      9.660336130786488     10.025851501150207     12.806762440470857
340    2     17.365282098507198     10.025852160833749     12.806770471957691
341    2     13.512808842916412     16.738567859594404     12.883461738388412
342    2     27.025623686051290      6.669768830277959     12.938187108656818
343    2     23.177695337924540     13.381650148570868     12.829334125144468
344    2     30.873549352819200     13.381649324948071     12.829329751061385
345    2     19.288995590416182     20.069995108714320     12.938202582209756
346    2     27.025621635129792     20.046454252914785     12.829329306480265
347    2     34.762246430732546     20.069992028727526     12.938200474021336
0.000000000000000      0.000000000000000      0.000000000000000
27.025621176949848      0.000000000000000      0.000000000000000
13.512810588474924     23.404874492293263      0.000000000000000
0.000000000000000      0.000000000000000     37.821246761657591
}
Driver = ConjugateGradient {
  MaxForceComponent = 1E-4
  MaxSteps = 0
  LatticeOpt = No
  MovedAtoms = "1:-1"
  OutputPrefix = "geo_end"
  AppendGeometries = No
  ConvergentForcesOnly = Yes
  Constraints = {}
}
Hamiltonian = DFTB {
  Charge = 0
  EwaldParameter = 0.1
  Filling = Fermi {
    Temperature = 0.0001
    IndependentKFilling = No
  }
  KPointsAndWeights = {
-0.33333333 -0.33333333  0.         1.0
-0.33333333  0.          0.         1.0
-0.33333333  0.33333333  0.         1.0
0.         -0.33333333  0.         1.0
0.  0.  0. 1.0
0.          0.33333333  0.         1.0
0.33333333 -0.33333333  0.         1.0
0.33333333  0.          0.         1.0
0.33333333  0.33333333  0.         1.0
  }
  MaxAngularMomentum = {
    H = "s"
    Si = "p"
  }
  MaxSCCIterations = 100
  SCC = YES
  SlaterKosterFiles = Type2FileNames {
    Prefix = /user/panosetti/data/progs/DFTB/parameters/pbc/pbc-0-3/
    Separator = "-"
    Suffix = ".skf"
    LowerCaseTypeName = No
  }
  PolynomialRepulsive = {}
  OldRepulsiveSum = No
  OrbitalResolvedSCC = No
  OldSKInterpolation = No
  ReadInitialCharges = No
  InitialCharges = {}
  SCCTolerance = 1.000000000000000E-005
  Mixer = Broyden {
    MixingParameter = 0.200000000000000
    CachedIterations = -1
    InverseJacobiWeight = 1.000000000000000E-002
    MinimalWeight = 1.00000000000000
    MaximalWeight = 100000.000000000
    WeightFactor = 1.000000000000000E-002
  }
  ElectricField = {}
  DampXH = No
  SpinPolarisation = {}
  Eigensolver = DivideAndConquer {}
  Dispersion = {}
  ThirdOrder = No
  ThirdOrderFull = No
}
Options = {
  WriteResultsTag = Yes
  WriteEigenvectors = No
  WriteAutotestTag = No
  WriteDetailedXML = No
  WriteDetailedOut = Yes
  WriteBandOut = Yes
  AtomResolvedEnergies = No
  RandomSeed = 0
  WriteHS = No
  WriteRealHS = No
  MinimiseMemoryUsage = No
  ShowFoldedCoords = No
}
ParserOptions = {
  ParserVersion = 4
  WriteHSDInput = Yes
  WriteXMLInput = No
  StopAfterParsing = No
  IgnoreUnprocessedNodes = No
}
Analysis = {
  ProjectStates = {}
}
Parallel = {
  RowBlockSize = 32
  ColumnBlockSize = 32
  Groups = 1
}
