Geometry = GenFormat {
61  S
H    Si
1      1     11.582409075835647      8.906309322142173      2.861931711395688
2      1      7.718508045882461      8.917930368849040      2.861259247486378
3      1     15.446310105788838      8.917930368849031      2.861259247486380
4      1      9.660522672401900      5.577504422577177      2.861931704475178
5      1      5.791204537917817      5.561949772975050      2.861407557836226
6      1     13.504295479269409      5.577504422577179      2.861931704475180
7      1      7.712392852791186      2.234353940465613      2.861407546699756
8      1      3.870016223044479      2.234353940465590      2.861407546699758
9      1     11.582409075835635      2.225457518195746      2.861259248360396
10     2     11.582409075835647      8.916142663730767      4.364249352331518
11     2      7.721606050557098      8.916142663730767      4.364249352331518
12     2     15.443212101114197      8.916142663730765      4.364249352331518
13     2      9.652007563196372      5.572589164831729      4.364249352331518
14     2      5.791204537917823      5.572589164831729      4.364249352331518
15     2     13.512810588474922      5.572589164831728      4.364249352331518
16     2      7.721606050557098      2.229035665932691      4.364249352331518
17     2      3.860803025278549      2.229035665932691      4.364249352331518
18     2     11.582409075835647      2.229035665932690      4.364249352331518
19     2      9.652007563196372      7.801624830764421      5.152332469775356
20     2      5.791204537917823      7.801624830764420      5.152332469775356
21     2     13.512810588474922      7.801624830764420      5.152332469775356
22     2      7.721606050557098      4.458071331865383      5.152332469775356
23     2      3.860803025278549      4.458071331865383      5.152332469775356
24     2     11.582409075835647      4.458071331865382      5.152332469775356
25     2      5.791204537917824      1.114517832966344      5.152332469775356
26     2      1.930401512639275      1.114517832966344      5.152332469775356
27     2      9.652007563196374      1.114517832966343      5.152332469775356
28     2      9.644524780233279      7.884968910726924      7.514198167925207
29     2      5.881124406378866      7.877855194390653      7.550133969309368
30     2     13.590779436589582      7.884520882195024      7.479396640969204
31     2      7.829293145677431      4.541191255269371      7.490852630064667
32     2      3.877468637440837      4.522488426252885      7.452296933750636
33     2     11.612162332516821      4.447993914054210      7.526954907557574
34     2      5.835200506183255      1.142194197780151      7.447103795733046
35     2      1.936385715352212      1.161947528348574      7.606786228614353
36     2      9.737169303223340      1.203788188547529      7.582827951863040
37     2     11.621515532880561      6.741684794043938      8.049849977178317
38     2      7.797611451721585      6.735945120895701      8.435337275882910
39     2      3.938849265223727      6.752921283883375      8.263612744546270
40     2      9.690197835662962      3.474525469324692      8.510769186302431
41     2      5.849612617311676      3.414666886330865      8.055058287993598
42     2      2.013395692677624      3.459261552108431      8.406925482104777
43     2      7.771985569949349      0.113898091181754      8.301186921794338
44     2      3.944925630645685      0.109074289656123      8.370774357618629
45     2      0.025522325285427      0.035087012470072      8.524756596032868
46     2     12.005768876395209      7.339701390724564     10.259981741546984
47     2      8.422597311171060      6.641148990183702     10.787309409149522
48     2      3.833082597680175      6.612784241758321     10.650311316653209
49     2      9.682578898644453      4.477486318810824     10.795566654465864
50     2      6.201739448748034      3.957780494007729     10.317771659897879
51     2      2.610893084370005      4.429606378976906     10.619186062663641
52     2      7.356327882153567      0.555042494796342     10.645212698562821
53     2      4.855857721658423      0.605906610029180     10.611557463405926
54     2     10.211427880912554      8.340689743898949     11.450683808692100
55     2     13.743817236680696      8.311717970190401     11.555783302906354
56     2      6.119103026835648      5.928083425174647     11.602643030003753
57     2      7.866753437655509      2.920612046249344     11.609731040004823
58     2      4.430043533249134      2.952135944397880     11.536516504800591
59     2     11.997512429705667      5.255871378884429     11.463294476268455
60     2      6.130478543953720      3.940885234448471     13.178774089456011
61     2     11.917170453333503      7.268670374962682     12.931835264944203
0.000000000000000      0.000000000000000      0.000000000000000
11.582409075835649      0.000000000000000      0.000000000000000
5.791204537917825     10.030660496697113      0.000000000000000
0.000000000000000      0.000000000000000     37.821246761657591
}
Driver = ConjugateGradient {
  MaxForceComponent = 1E-4
  MaxSteps = 0
  LatticeOpt = No
  MovedAtoms = "1:-1"
  OutputPrefix = "geo_end"
  AppendGeometries = No
  ConvergentForcesOnly = Yes
  Constraints = {}
}
Hamiltonian = DFTB {
  EwaldParameter = 0.5
  Filling = Fermi {
    Temperature = 0.01
    IndependentKFilling = No
  }
  KPointsAndWeights = {
-0.33333333 -0.33333333  0.         1.0
-0.33333333  0.          0.         1.0
-0.33333333  0.33333333  0.         1.0
0.         -0.33333333  0.         1.0
0. 0. 0. 1.0
0.         0.33333333 0.         1.0
0.33333333 -0.33333333  0.         1.0
0.33333333 0.         0.         1.0
0.33333333 0.33333333 0.         1.0
  }
  MaxAngularMomentum = {
    H = s
    Si = p
  }
  SCC = YES
  SlaterKosterFiles = Type2FileNames {
    Prefix = /user/panosetti/data/progs/DFTB/parameters/pbc/pbc-0-3/
    Separator = "-"
    Suffix = ".skf"
    LowerCaseTypeName = No
  }
  PolynomialRepulsive = {}
  OldRepulsiveSum = No
  OrbitalResolvedSCC = No
  OldSKInterpolation = No
  Charge = 0.000000000000000E+000
  ReadInitialCharges = No
  InitialCharges = {}
  SCCTolerance = 1.000000000000000E-005
  MaxSCCIterations = 100
  Mixer = Broyden {
    MixingParameter = 0.200000000000000
    CachedIterations = -1
    InverseJacobiWeight = 1.000000000000000E-002
    MinimalWeight = 1.00000000000000
    MaximalWeight = 100000.000000000
    WeightFactor = 1.000000000000000E-002
  }
  ElectricField = {}
  DampXH = No
  SpinPolarisation = {}
  Eigensolver = DivideAndConquer {}
  Dispersion = {}
  ManyBodyDispersion = {}
  ThirdOrder = No
  ThirdOrderFull = No
}
Options = {
  WriteResultsTag = Yes
  WriteEigenvectors = No
  WriteAutotestTag = No
  WriteDetailedXML = No
  WriteDetailedOut = Yes
  WriteBandOut = Yes
  AtomResolvedEnergies = No
  RandomSeed = 0
  WriteHS = No
  WriteRealHS = No
  WriteCPA = No
  MinimiseMemoryUsage = No
  ShowFoldedCoords = No
}
ParserOptions = {
  IgnoreUnprocessedNodes = Yes
  ParserVersion = 4
  WriteHSDInput = Yes
  WriteXMLInput = No
  StopAfterParsing = No
}
Analysis = {
  ProjectStates = {}
}
Parallel = {
  RowBlockSize = 32
  ColumnBlockSize = 32
  Groups = 1
}
