Geometry = GenFormat {
577  S
H    Si
1      1     46.323064406064510     28.968344161568666      2.862029182542031
2      1     42.465863916415216     28.988444321860666      2.861742049018685
3      1     38.607231085121981     28.968280547481875      2.862200852286920
4      1     34.747227344795711     28.987799493436370      2.861770038569834
5      1     30.887223526062780     28.968280515368217      2.862201021206647
6      1     27.028590663365833     28.988444419662819      2.861742031821972
7      1     23.171389943531260     28.968344096880671      2.862028882193990
8      1     19.305926106266117     28.976359408065001      2.860974661138311
9      1     50.188528021713360     28.976359375883487      2.860974828073659
10     1     44.401104677593054     25.634988794030296      2.862125244572293
11     1     40.534998175214454     25.635371588895236      2.862220374427167
12     1     36.681842638906978     25.636568323732877      2.862165983454352
13     1     32.812612001952616     25.636568286919786      2.862166209575705
14     1     28.959456459007011     25.635371623495935      2.862220762988930
15     1     25.093349695792227     25.634988777896261      2.862125334451906
16     1     21.245599465197692     25.632777159735188      2.862028583727215
17     1     17.373613492545502     25.611853993062933      2.861425451625621
18     1     48.248854818132216     25.632777186002254      2.862028712603089
19     1     42.468382924232564     22.286650905341141      2.862219687043747
20     1     38.608034595670901     22.290358291000285      2.861513829386560
21     1     34.747227301237615     22.286344169553548      2.862256145954974
22     1     30.886419944479261     22.290358205594732      2.861514579995984
23     1     27.026071555326574     22.286650734693868      2.862220605628089
24     1     23.156792532973931     22.282293296024935      2.861741579452787
25     1     19.307346903284468     22.276243974704219      2.862499738035226
26     1     15.439880179651217     22.276244033767874      2.862499593463070
27     1     46.337661852850424     22.282293505977364      2.861741053978009
28     1     40.542841570825161     18.949121894626614      2.862164695157593
29     1     36.674154784144946     18.948807929758811      2.862255547345243
30     1     32.820299797253391     18.948807917803197      2.862256138411922
31     1     28.951612938672504     18.949121827924490      2.862166062065614
32     1     25.103571339147678     18.950701089353707      2.862200582614079
33     1     21.229868986321030     18.951680632498039      2.862536821789083
34     1     17.373613584773214     18.943250541421957      2.861386704847339
35     1     13.517358150007018     18.951680664531853      2.862536116876443
36     1     44.390883073762879     18.950701200480125      2.862199310610485
37     1     38.608226245477830     15.598269877059867      2.862164839878217
38     1     34.747227192616300     15.603243793659303      2.861513944334867
39     1     30.886228237144429     15.598269778220999      2.862165983313718
40     1     27.016669386298638     15.598080378611918      2.861769797088335
41     1     23.168057369521176     15.595376296059920      2.862517241352871
42     1     19.307346791249334     15.604422005272893      2.862382939577083
43     1     15.439880402052637     15.604422044314337      2.862382517914808
44     1     11.579169836682336     15.595376372647459      2.862516118556050
45     1     42.477785139846361     15.598080476760819      2.861768378210134
46     1     36.680612047860407     12.261937713878142      2.862220003257409
47     1     32.813842389639298     12.261937681377328      2.862220537514454
48     1     28.963575067841564     12.264978470118926      2.862200820985625
49     1     25.090021630841782     12.266436568434999      2.862517473883295
50     1     21.234440747158470     12.259709133435438      2.861403503545330
51     1     17.373613644540299     12.256582966921634      2.862342910241230
52     1     13.512786557232198     12.259709204913735      2.861402986207053
53     1      9.657205600965160     12.266436709879459      2.862516401672078
54     1     40.530879316078185     12.264978604511022      2.862199711576335
55     1     34.747227172822839      8.913982517185298      2.862125575513488
56     1     30.875429236685804      8.913222624830414      2.861742181147151
57     1     27.027572199320151      8.909764082272291      2.862537552511920
58     1     23.167500124641304      8.918440378309509      2.862383571622749
59     1     19.301319960079468      8.917697807250216      2.862343303803688
60     1     15.445907372307289      8.917697832532204      2.862343160800763
61     1     11.579727169049393      8.918440476093776      2.862383088472296
62     1      7.719654988830067      8.909764179712026      2.862536811962247
63     1     38.619025149162482      8.913222634895309      2.861741631823678
64     1     32.821436693717985      5.582838990139790      2.862029376975615
65     1     28.945467561053086      5.582529490323871      2.862500802477769
66     1     25.092143843285310      5.574364066689946      2.861387737337802
67     1     21.233766974655325      5.569116181415843      2.862383656433869
68     1     17.373613712031872      5.572560537855908      2.861403856247285
69     1     13.513460386783645      5.569116242057930      2.862383596337584
70     1      9.655083463536078      5.574364144618444      2.861387601901337
71     1      5.801759601056280      5.582529644390241      2.862500346647580
72     1     36.673017544288818      5.582839065890588      2.862029202381428
73     1     30.867323788266695      2.240062247937926      2.861426251708336
74     1     27.011734236648483      2.233205085222739      2.862500756482054
75     1     23.171316835870396      2.230533900284570      2.862537562057968
76     1     19.295577976519464      2.230165716641892      2.862517671266845
77     1     15.451649430279430      2.230165704915353      2.862517724473026
78     1     11.575910439629792      2.230533910274998      2.862537532701847
79     1      7.735493069862687      2.233205105174228      2.862500449471972
80     1      3.879903285973449      2.240062298862934      2.861425947228998
81     1     34.747227092461323      2.231241883008795      2.860975021303728
82     2     46.329636303342589     28.977463657124996      4.364249352331518
83     2     42.468833278064039     28.977463657124996      4.364249352331518
84     2     38.608030252785490     28.977463657124996      4.364249352331518
85     2     34.747227227506940     28.977463657124996      4.364249352331518
86     2     30.886424202228390     28.977463657124993      4.364249352331518
87     2     27.025621176949841     28.977463657124993      4.364249352331518
88     2     23.164818151671291     28.977463657124993      4.364249352331518
89     2     19.304015126392741     28.977463657124993      4.364249352331518
90     2     50.190439328621139     28.977463657124993      4.364249352331518
91     2     44.399234790703318     25.633910158225959      4.364249352331518
92     2     40.538431765424761     25.633910158225959      4.364249352331518
93     2     36.677628740146218     25.633910158225959      4.364249352331518
94     2     32.816825714867662     25.633910158225959      4.364249352331518
95     2     28.956022689589116     25.633910158225955      4.364249352331518
96     2     25.095219664310566     25.633910158225955      4.364249352331518
97     2     21.234416639032016     25.633910158225955      4.364249352331518
98     2     17.373613613753466     25.633910158225955      4.364249352331518
99     2     48.260037815981860     25.633910158225955      4.364249352331518
100    2     42.468833278064039     22.290356659326921      4.364249352331518
101    2     38.608030252785490     22.290356659326921      4.364249352331518
102    2     34.747227227506940     22.290356659326918      4.364249352331518
103    2     30.886424202228390     22.290356659326918      4.364249352331518
104    2     27.025621176949841     22.290356659326918      4.364249352331518
105    2     23.164818151671291     22.290356659326918      4.364249352331518
106    2     19.304015126392741     22.290356659326918      4.364249352331518
107    2     15.443212101114192     22.290356659326918      4.364249352331518
108    2     46.329636303342589     22.290356659326918      4.364249352331518
109    2     40.538431765424768     18.946803160427883      4.364249352331518
110    2     36.677628740146218     18.946803160427883      4.364249352331518
111    2     32.816825714867669     18.946803160427883      4.364249352331518
112    2     28.956022689589116     18.946803160427883      4.364249352331518
113    2     25.095219664310566     18.946803160427883      4.364249352331518
114    2     21.234416639032016     18.946803160427880      4.364249352331518
115    2     17.373613613753466     18.946803160427880      4.364249352331518
116    2     13.512810588474913     18.946803160427880      4.364249352331518
117    2     44.399234790703318     18.946803160427876      4.364249352331518
118    2     38.608030252785490     15.603249661528844      4.364249352331518
119    2     34.747227227506940     15.603249661528844      4.364249352331518
120    2     30.886424202228390     15.603249661528844      4.364249352331518
121    2     27.025621176949841     15.603249661528844      4.364249352331518
122    2     23.164818151671291     15.603249661528842      4.364249352331518
123    2     19.304015126392741     15.603249661528842      4.364249352331518
124    2     15.443212101114192     15.603249661528842      4.364249352331518
125    2     11.582409075835642     15.603249661528842      4.364249352331518
126    2     42.468833278064039     15.603249661528841      4.364249352331518
127    2     36.677628740146218     12.259696162629808      4.364249352331518
128    2     32.816825714867669     12.259696162629808      4.364249352331518
129    2     28.956022689589119     12.259696162629805      4.364249352331518
130    2     25.095219664310569     12.259696162629805      4.364249352331518
131    2     21.234416639032020     12.259696162629805      4.364249352331518
132    2     17.373613613753470     12.259696162629805      4.364249352331518
133    2     13.512810588474913     12.259696162629805      4.364249352331518
134    2      9.652007563196371     12.259696162629805      4.364249352331518
135    2     40.538431765424761     12.259696162629805      4.364249352331518
136    2     34.747227227506940      8.916142663730771      4.364249352331518
137    2     30.886424202228390      8.916142663730767      4.364249352331518
138    2     27.025621176949844      8.916142663730767      4.364249352331518
139    2     23.164818151671295      8.916142663730767      4.364249352331518
140    2     19.304015126392745      8.916142663730767      4.364249352331518
141    2     15.443212101114195      8.916142663730767      4.364249352331518
142    2     11.582409075835642      8.916142663730767      4.364249352331518
143    2      7.721606050557092      8.916142663730767      4.364249352331518
144    2     38.608030252785490      8.916142663730767      4.364249352331518
145    2     32.816825714867669      5.572589164831733      4.364249352331518
146    2     28.956022689589119      5.572589164831729      4.364249352331518
147    2     25.095219664310569      5.572589164831729      4.364249352331518
148    2     21.234416639032020      5.572589164831729      4.364249352331518
149    2     17.373613613753470      5.572589164831729      4.364249352331518
150    2     13.512810588474913      5.572589164831729      4.364249352331518
151    2      9.652007563196371      5.572589164831729      4.364249352331518
152    2      5.791204537917814      5.572589164831729      4.364249352331518
153    2     36.677628740146218      5.572589164831726      4.364249352331518
154    2     30.886424202228394      2.229035665932692      4.364249352331518
155    2     27.025621176949844      2.229035665932692      4.364249352331518
156    2     23.164818151671295      2.229035665932692      4.364249352331518
157    2     19.304015126392745      2.229035665932692      4.364249352331518
158    2     15.443212101114195      2.229035665932692      4.364249352331518
159    2     11.582409075835642      2.229035665932692      4.364249352331518
160    2      7.721606050557092      2.229035665932692      4.364249352331518
161    2      3.860803025278543      2.229035665932692      4.364249352331518
162    2     34.747227227506940      2.229035665932688      4.364249352331518
163    2     44.399234790703318     27.862945824158651      5.152332469775356
164    2     40.538431765424761     27.862945824158651      5.152332469775356
165    2     36.677628740146218     27.862945824158651      5.152332469775356
166    2     32.816825714867662     27.862945824158651      5.152332469775356
167    2     28.956022689589116     27.862945824158647      5.152332469775356
168    2     25.095219664310566     27.862945824158647      5.152332469775356
169    2     21.234416639032016     27.862945824158647      5.152332469775356
170    2     17.373613613753466     27.862945824158647      5.152332469775356
171    2     48.260037815981860     27.862945824158647      5.152332469775356
172    2     42.468833278064039     24.519392325259613      5.152332469775356
173    2     38.608030252785490     24.519392325259613      5.152332469775356
174    2     34.747227227506940     24.519392325259609      5.152332469775356
175    2     30.886424202228390     24.519392325259609      5.152332469775356
176    2     27.025621176949841     24.519392325259609      5.152332469775356
177    2     23.164818151671291     24.519392325259609      5.152332469775356
178    2     19.304015126392741     24.519392325259609      5.152332469775356
179    2     15.443212101114192     24.519392325259609      5.152332469775356
180    2     46.329636303342589     24.519392325259609      5.152332469775356
181    2     40.538431765424768     21.175838826360575      5.152332469775356
182    2     36.677628740146218     21.175838826360575      5.152332469775356
183    2     32.816825714867669     21.175838826360572      5.152332469775356
184    2     28.956022689589116     21.175838826360572      5.152332469775356
185    2     25.095219664310566     21.175838826360572      5.152332469775356
186    2     21.234416639032016     21.175838826360572      5.152332469775356
187    2     17.373613613753466     21.175838826360572      5.152332469775356
188    2     13.512810588474920     21.175838826360568      5.152332469775356
189    2     44.399234790703311     21.175838826360568      5.152332469775356
190    2     38.608030252785490     17.832285327461534      5.152332469775356
191    2     34.747227227506940     17.832285327461534      5.152332469775356
192    2     30.886424202228390     17.832285327461534      5.152332469775356
193    2     27.025621176949841     17.832285327461534      5.152332469775356
194    2     23.164818151671291     17.832285327461534      5.152332469775356
195    2     19.304015126392741     17.832285327461534      5.152332469775356
196    2     15.443212101114192     17.832285327461534      5.152332469775356
197    2     11.582409075835642     17.832285327461534      5.152332469775356
198    2     42.468833278064039     17.832285327461534      5.152332469775356
199    2     36.677628740146218     14.488731828562500      5.152332469775356
200    2     32.816825714867669     14.488731828562500      5.152332469775356
201    2     28.956022689589116     14.488731828562500      5.152332469775356
202    2     25.095219664310566     14.488731828562500      5.152332469775356
203    2     21.234416639032020     14.488731828562498      5.152332469775356
204    2     17.373613613753470     14.488731828562498      5.152332469775356
205    2     13.512810588474920     14.488731828562498      5.152332469775356
206    2      9.652007563196371     14.488731828562496      5.152332469775356
207    2     40.538431765424761     14.488731828562496      5.152332469775356
208    2     34.747227227506940     11.145178329663462      5.152332469775356
209    2     30.886424202228390     11.145178329663459      5.152332469775356
210    2     27.025621176949844     11.145178329663459      5.152332469775356
211    2     23.164818151671295     11.145178329663459      5.152332469775356
212    2     19.304015126392745     11.145178329663459      5.152332469775356
213    2     15.443212101114195     11.145178329663459      5.152332469775356
214    2     11.582409075835642     11.145178329663459      5.152332469775356
215    2      7.721606050557092     11.145178329663459      5.152332469775356
216    2     38.608030252785490     11.145178329663459      5.152332469775356
217    2     32.816825714867669      7.801624830764425      5.152332469775356
218    2     28.956022689589119      7.801624830764421      5.152332469775356
219    2     25.095219664310569      7.801624830764421      5.152332469775356
220    2     21.234416639032020      7.801624830764421      5.152332469775356
221    2     17.373613613753474      7.801624830764421      5.152332469775356
222    2     13.512810588474920      7.801624830764421      5.152332469775356
223    2      9.652007563196371      7.801624830764421      5.152332469775356
224    2      5.791204537917821      7.801624830764421      5.152332469775356
225    2     36.677628740146211      7.801624830764418      5.152332469775356
226    2     30.886424202228394      4.458071331865384      5.152332469775356
227    2     27.025621176949844      4.458071331865384      5.152332469775356
228    2     23.164818151671295      4.458071331865384      5.152332469775356
229    2     19.304015126392745      4.458071331865384      5.152332469775356
230    2     15.443212101114195      4.458071331865384      5.152332469775356
231    2     11.582409075835642      4.458071331865384      5.152332469775356
232    2      7.721606050557092      4.458071331865384      5.152332469775356
233    2      3.860803025278543      4.458071331865384      5.152332469775356
234    2     34.747227227506940      4.458071331865380      5.152332469775356
235    2     28.956022689589119      1.114517832966342      5.152332469775356
236    2     25.095219664310569      1.114517832966342      5.152332469775356
237    2     21.234416639032016      1.114517832966342      5.152332469775356
238    2     17.373613613753466      1.114517832966342      5.152332469775356
239    2     13.512810588474913      1.114517832966342      5.152332469775356
240    2      9.652007563196371      1.114517832966342      5.152332469775356
241    2      5.791204537917814      1.114517832966342      5.152332469775356
242    2      1.930401512639271      1.114517832966339      5.152332469775356
243    2     32.816825714867662      1.114517832966339      5.152332469775356
244    2     44.399234790703318     27.862945824158651      7.516581822106875
245    2     40.538431765424761     27.862945824158651      7.516581822106875
246    2     36.677628740146218     27.862945824158651      7.516581822106875
247    2     32.816825714867662     27.862945824158651      7.516581822106875
248    2     28.956022689589116     27.862945824158647      7.516581822106875
249    2     25.095219664310566     27.862945824158647      7.516581822106875
250    2     21.234416639032016     27.862945824158647      7.516581822106875
251    2     17.373613613753466     27.862945824158647      7.516581822106875
252    2     48.260037815981860     27.862945824158647      7.516581822106875
253    2     42.468833278064039     24.519392325259613      7.516581822106875
254    2     38.608030252785490     24.519392325259613      7.516581822106875
255    2     34.747227227506940     24.519392325259609      7.516581822106875
256    2     30.886424202228390     24.519392325259609      7.516581822106875
257    2     27.025621176949841     24.519392325259609      7.516581822106875
258    2     23.164818151671291     24.519392325259609      7.516581822106875
259    2     19.304015126392741     24.519392325259609      7.516581822106875
260    2     15.443212101114192     24.519392325259609      7.516581822106875
261    2     46.329636303342589     24.519392325259609      7.516581822106875
262    2     40.538431765424768     21.175838826360575      7.516581822106875
263    2     36.677628740146218     21.175838826360575      7.516581822106875
264    2     32.816825714867669     21.175838826360572      7.516581822106875
265    2     28.956022689589116     21.175838826360572      7.516581822106875
266    2     25.095219664310566     21.175838826360572      7.516581822106875
267    2     21.234416639032016     21.175838826360572      7.516581822106875
268    2     17.373613613753466     21.175838826360572      7.516581822106875
269    2     13.512810588474920     21.175838826360568      7.516581822106875
270    2     44.399234790703311     21.175838826360568      7.516581822106875
271    2     38.608030252785490     17.832285327461534      7.516581822106875
272    2     34.747227227506940     17.832285327461534      7.516581822106875
273    2     30.886424202228390     17.832285327461534      7.516581822106875
274    2     27.025621176949841     17.832285327461534      7.516581822106875
275    2     23.164818151671291     17.832285327461534      7.516581822106875
276    2     19.304015126392741     17.832285327461534      7.516581822106875
277    2     15.443212101114192     17.832285327461534      7.516581822106875
278    2     11.582409075835642     17.832285327461534      7.516581822106875
279    2     42.468833278064039     17.832285327461534      7.516581822106875
280    2     36.677628740146218     14.488731828562500      7.516581822106875
281    2     32.816825714867669     14.488731828562500      7.516581822106875
282    2     28.956022689589116     14.488731828562500      7.516581822106875
283    2     25.095219664310566     14.488731828562500      7.516581822106875
284    2     21.234416639032020     14.488731828562498      7.516581822106875
285    2     17.373613613753470     14.488731828562498      7.516581822106875
286    2     13.512810588474920     14.488731828562498      7.516581822106875
287    2      9.652007563196371     14.488731828562496      7.516581822106875
288    2     40.538431765424761     14.488731828562496      7.516581822106875
289    2     34.747227227506940     11.145178329663462      7.516581822106875
290    2     30.886424202228390     11.145178329663459      7.516581822106875
291    2     27.025621176949844     11.145178329663459      7.516581822106875
292    2     23.164818151671295     11.145178329663459      7.516581822106875
293    2     19.304015126392745     11.145178329663459      7.516581822106875
294    2     15.443212101114195     11.145178329663459      7.516581822106875
295    2     11.582409075835642     11.145178329663459      7.516581822106875
296    2      7.721606050557092     11.145178329663459      7.516581822106875
297    2     38.608030252785490     11.145178329663459      7.516581822106875
298    2     32.816825714867669      7.801624830764425      7.516581822106875
299    2     28.956022689589119      7.801624830764421      7.516581822106875
300    2     25.095219664310569      7.801624830764421      7.516581822106875
301    2     21.234416639032020      7.801624830764421      7.516581822106875
302    2     17.373613613753474      7.801624830764421      7.516581822106875
303    2     13.512810588474920      7.801624830764421      7.516581822106875
304    2      9.652007563196371      7.801624830764421      7.516581822106875
305    2      5.791204537917821      7.801624830764421      7.516581822106875
306    2     36.677628740146211      7.801624830764418      7.516581822106875
307    2     30.886424202228394      4.458071331865384      7.516581822106875
308    2     27.025621176949844      4.458071331865384      7.516581822106875
309    2     23.164818151671295      4.458071331865384      7.516581822106875
310    2     19.304015126392745      4.458071331865384      7.516581822106875
311    2     15.443212101114195      4.458071331865384      7.516581822106875
312    2     11.582409075835642      4.458071331865384      7.516581822106875
313    2      7.721606050557092      4.458071331865384      7.516581822106875
314    2      3.860803025278543      4.458071331865384      7.516581822106875
315    2     34.747227227506940      4.458071331865380      7.516581822106875
316    2     28.956022689589119      1.114517832966342      7.516581822106875
317    2     25.095219664310569      1.114517832966342      7.516581822106875
318    2     21.234416639032016      1.114517832966342      7.516581822106875
319    2     17.373613613753466      1.114517832966342      7.516581822106875
320    2     13.512810588474913      1.114517832966342      7.516581822106875
321    2      9.652007563196371      1.114517832966342      7.516581822106875
322    2      5.791204537917814      1.114517832966342      7.516581822106875
323    2      1.930401512639271      1.114517832966339      7.516581822106875
324    2     32.816825714867662      1.114517832966339      7.516581822106875
325    2     46.329048862032799     26.748090752626673      8.069662913694227
326    2     42.472003304990842     26.749902164739929      8.395014850517638
327    2     38.608056276538733     26.747191755583966      8.050429993150782
328    2     34.747227169520272     26.749461650689724      8.392535763743091
329    2     30.886398103049572     26.747191301364591      8.050437240238272
330    2     27.022451627717938     26.749902399871829      8.395020203154345
331    2     23.165405732159069     26.748090367940204      8.069675529806435
332    2     19.306002702810833     26.727880523934395      8.350275499566422
333    2     15.441223818086993     26.727880380421485      8.350273401543101
334    2     44.402094953198606     23.406885784932527      8.395014130557458
335    2     40.551766102025503     23.412575321601857      8.396279590674036
336    2     36.667434909215260     23.413257953674332      8.395737901489619
337    2     32.827019526033503     23.413257823254121      8.395739362067621
338    2     28.942688557718970     23.412575201797150      8.396283426893010
339    2     25.092359883073922     23.406885528436526      8.395019067008620
340    2     21.216876503919927     23.436161374620983      8.380483732571488
341    2     17.373613508604585     23.407180075429892      8.054008699241011
342    2     13.530350285063815     23.436161428397494      8.380480352585737
343    2     42.467774151950188     20.061964383234340      8.050432313294152
344    2     38.610191728028539     20.048304388890298      8.395738817835829
345    2     34.747226804100606     20.061322617699783      8.031030196129899
346    2     30.884262858572203     20.048304284765333      8.395739014153841
347    2     27.026680576135657     20.061964115434215      8.050436606319483
348    2     23.178722378873097     20.036712339219950      8.368646145049073
349    2     19.315844884916753     20.070832112882620      8.394255577973517
350    2     15.431382020746328     20.070832176116102      8.394254667656812
351    2     11.568505230647004     20.036712916759139      8.368643408658265
352    2     40.539325304080620     16.717253378641733      8.392534492873924
353    2     36.689983763068632     16.722406711463059      8.395739118151171
354    2     32.804470547582135     16.722406830567909      8.395737904813146
355    2     28.955129424198645     16.717253610395495      8.392534176854948
356    2     25.080119290062328     16.744440318217443      8.370398125791992
357    2     21.235458500828081     16.718382755388287      8.039969095999973
358    2     17.373613466658529     16.716840107691429      8.394214115357016
359    2     13.511769081304148     16.718382694082059      8.039968936201388
360    2      9.667107960682703     16.744440128365746      8.370397699747707
361    2     38.606944613194976     13.374811463231266      8.050435940702808
362    2     34.747227225948990     13.358818252186252      8.396280897105612
363    2     30.887509316183863     13.374811673983254      8.050433068063869
364    2     27.041168788179700     13.347803263373700      8.370396805851943
365    2     23.178756194108690     13.382263225242577      8.391827346440687
366    2     19.300911301764529     13.377893635864679      8.393657784739339
367    2     15.446315355091482     13.377893298063604      8.393659316185158
368    2     11.568471350913262     13.382262320522806      8.391828902424267
369    2      7.706058476716753     13.347802399236253      8.370397456022811
370    2     36.677318888182853     10.027180342871526      8.395016114183951
371    2     32.817135990085319     10.027180509523543      8.395015757477877
372    2     28.941662031721361     10.055007945731621      8.368643666817956
373    2     25.096272102046431     10.031257030306069      8.039965082360292
374    2     21.236049615817201     10.026135080083320      8.393656924395337
375    2     17.373613667084452     10.030661785626421      8.024421683812742
376    2     13.511176959028939     10.026135336589448      8.393659443567845
377    2      9.650955309285575     10.031256642392112      8.039971898417964
378    2      5.805565827057759     10.055008279304872      8.368645060592600
379    2     34.747226961511323      6.687786732188772      8.069670640778646
380    2     30.904748268003289      6.656276363205142      8.380480053018980
381    2     27.039772395415021      6.692598932743955      8.394251141793465
382    2     23.164012803094799      6.687573308560746      8.394209333784469
383    2     19.308751779781900      6.687957425615022      8.393657118848655
384    2     15.438474764412875      6.687957061324791      8.393658151005344